*SPEF "ieee 1481-1999"
*DESIGN "tt_um_ares_sentinel_project"
*DATE "11:11:11 Fri 11 11, 1111"
*VENDOR "OpenRCX"
*PROGRAM "Parallel Extraction"
*VERSION "1.0"
*DESIGN_FLOW "NAME_SCOPE LOCAL" "PIN_CAP NONE"
*DIVIDER /
*DELIMITER :
*BUS_DELIMITER []
*T_UNIT 1 NS
*C_UNIT 1 PF
*R_UNIT 1 OHM
*L_UNIT 1 HENRY

*NAME_MAP
*1 _0000_
*2 _0001_
*3 _0002_
*4 _0003_
*5 _0004_
*6 _0005_
*7 _0006_
*8 _0007_
*9 _0008_
*10 _0009_
*11 _0010_
*12 _0011_
*13 _0012_
*14 _0013_
*15 _0014_
*16 _0015_
*17 _0016_
*18 _0017_
*19 _0018_
*20 _0019_
*21 _0020_
*22 _0021_
*23 _0022_
*24 _0023_
*25 _0024_
*26 _0025_
*27 _0026_
*28 _0027_
*29 _0028_
*30 _0029_
*31 _0030_
*32 _0031_
*33 _0032_
*34 _0033_
*35 _0034_
*36 _0035_
*37 _0036_
*38 _0037_
*39 _0038_
*40 _0039_
*41 _0040_
*42 _0041_
*43 _0042_
*44 _0043_
*45 _0044_
*46 _0045_
*47 _0046_
*48 _0047_
*49 _0048_
*50 _0049_
*51 _0050_
*52 _0051_
*53 _0052_
*54 _0053_
*55 _0054_
*56 _0055_
*57 _0056_
*58 _0057_
*59 _0058_
*60 _0059_
*61 _0060_
*62 _0061_
*63 _0062_
*64 _0063_
*65 _0064_
*66 _0065_
*67 _0066_
*68 _0067_
*69 _0068_
*70 _0069_
*71 _0070_
*72 _0071_
*73 _0072_
*74 _0073_
*75 _0074_
*76 _0075_
*77 _0076_
*78 _0077_
*79 _0078_
*80 _0079_
*81 _0080_
*82 _0081_
*83 _0082_
*84 _0083_
*85 _0084_
*86 _0085_
*87 _0086_
*88 _0087_
*89 _0088_
*90 _0089_
*91 _0090_
*92 _0091_
*93 _0092_
*94 _0093_
*95 _0094_
*96 _0095_
*97 _0096_
*98 _0097_
*99 _0098_
*100 _0099_
*101 _0100_
*102 _0101_
*103 _0102_
*104 _0103_
*105 _0104_
*106 _0105_
*107 _0106_
*108 _0107_
*109 _0108_
*110 _0109_
*111 _0110_
*112 _0111_
*113 _0112_
*114 _0113_
*115 _0114_
*116 _0115_
*117 _0116_
*118 _0117_
*119 _0118_
*120 _0119_
*121 _0120_
*122 _0121_
*123 _0122_
*124 _0123_
*125 _0124_
*126 _0125_
*127 _0126_
*128 _0127_
*129 _0128_
*130 _0129_
*131 _0130_
*132 _0131_
*133 _0132_
*134 _0133_
*135 _0134_
*136 _0135_
*137 _0136_
*138 _0137_
*139 _0138_
*140 _0139_
*141 _0140_
*142 _0141_
*143 _0142_
*144 _0143_
*145 _0144_
*146 _0145_
*147 _0146_
*148 _0147_
*149 _0148_
*150 _0149_
*151 _0150_
*152 _0151_
*153 _0152_
*154 _0153_
*155 _0154_
*156 _0155_
*157 _0156_
*158 _0157_
*159 _0158_
*160 _0159_
*161 _0160_
*162 _0161_
*163 _0162_
*164 _0163_
*165 _0164_
*166 _0165_
*167 _0166_
*168 _0167_
*169 _0168_
*170 _0169_
*171 _0170_
*172 _0171_
*173 _0172_
*174 _0173_
*175 _0174_
*176 _0175_
*177 _0176_
*178 _0177_
*179 _0178_
*180 _0179_
*181 _0180_
*182 _0181_
*183 _0182_
*184 _0183_
*185 _0184_
*186 _0185_
*187 _0186_
*188 _0187_
*189 _0188_
*190 _0189_
*191 _0190_
*192 _0191_
*193 _0192_
*194 _0193_
*195 _0194_
*196 _0195_
*197 _0196_
*198 _0197_
*199 _0198_
*200 _0199_
*201 _0200_
*202 _0201_
*203 _0202_
*204 _0203_
*205 _0204_
*206 _0205_
*207 _0206_
*208 _0207_
*209 _0208_
*210 _0209_
*211 _0210_
*212 _0211_
*213 _0212_
*214 _0213_
*215 _0214_
*216 _0215_
*217 _0216_
*218 _0217_
*219 _0218_
*220 _0219_
*221 _0220_
*222 _0221_
*223 _0222_
*224 _0223_
*225 _0224_
*226 _0225_
*227 _0226_
*228 _0227_
*229 _0228_
*230 _0229_
*231 _0230_
*232 _0231_
*233 _0232_
*234 _0233_
*235 _0234_
*236 _0235_
*237 _0236_
*238 _0237_
*239 _0238_
*240 _0239_
*241 _0240_
*242 _0241_
*243 _0242_
*244 _0243_
*245 _0244_
*246 _0245_
*247 _0246_
*248 _0247_
*249 _0248_
*250 _0249_
*251 _0250_
*252 _0251_
*253 _0252_
*254 _0253_
*255 _0254_
*256 _0255_
*257 _0256_
*258 _0257_
*259 _0258_
*260 _0259_
*261 _0260_
*262 _0261_
*263 _0262_
*264 _0263_
*265 _0264_
*266 _0265_
*267 _0266_
*268 _0267_
*269 _0268_
*270 _0269_
*271 _0270_
*272 _0271_
*273 _0272_
*274 _0273_
*275 _0274_
*276 _0275_
*277 _0276_
*278 _0277_
*279 _0278_
*280 _0279_
*281 _0280_
*282 _0281_
*283 _0282_
*284 _0283_
*285 _0284_
*286 _0285_
*287 _0286_
*288 _0287_
*289 _0288_
*290 _0289_
*291 _0290_
*292 _0291_
*293 _0292_
*294 _0293_
*295 _0294_
*296 _0295_
*297 _0296_
*298 _0297_
*299 _0298_
*300 _0299_
*301 _0300_
*302 _0301_
*303 _0302_
*304 _0303_
*305 _0304_
*306 _0305_
*307 _0306_
*308 _0307_
*309 _0308_
*310 _0309_
*311 _0310_
*312 _0311_
*313 _0312_
*314 _0313_
*315 _0314_
*316 _0315_
*317 _0316_
*318 _0317_
*319 _0318_
*320 _0319_
*321 _0320_
*322 _0321_
*323 _0322_
*324 _0323_
*325 _0324_
*326 _0325_
*327 _0326_
*328 _0327_
*329 _0328_
*330 _0329_
*331 _0330_
*332 _0331_
*333 _0332_
*334 _0333_
*335 _0334_
*336 _0335_
*337 _0336_
*338 _0337_
*339 _0338_
*340 _0339_
*341 _0340_
*342 _0341_
*343 _0342_
*344 _0343_
*345 _0344_
*346 _0345_
*347 _0346_
*348 _0347_
*349 _0348_
*350 _0349_
*351 _0350_
*352 _0351_
*353 _0352_
*354 _0353_
*355 _0354_
*356 _0355_
*357 _0356_
*358 _0357_
*359 _0358_
*360 _0359_
*361 _0360_
*362 _0361_
*363 _0362_
*364 _0363_
*365 _0364_
*366 _0365_
*367 _0366_
*368 _0367_
*369 _0368_
*370 _0369_
*371 _0370_
*372 _0371_
*373 _0372_
*374 _0373_
*375 _0374_
*376 _0375_
*377 _0376_
*378 _0377_
*379 _0378_
*380 _0379_
*381 _0380_
*382 _0381_
*383 _0382_
*384 _0383_
*385 _0384_
*386 _0385_
*387 _0386_
*388 _0387_
*389 _0388_
*390 _0389_
*391 _0390_
*392 _0391_
*393 _0392_
*394 _0393_
*395 _0394_
*396 _0395_
*397 _0396_
*398 _0397_
*399 _0398_
*400 _0399_
*401 _0400_
*402 _0401_
*403 _0402_
*404 _0403_
*405 _0404_
*406 _0405_
*407 _0406_
*408 _0407_
*409 _0408_
*410 _0409_
*411 _0410_
*412 _0411_
*413 _0412_
*414 _0413_
*415 _0414_
*416 _0415_
*417 _0416_
*418 _0417_
*419 _0418_
*420 _0419_
*421 _0420_
*422 _0421_
*423 _0422_
*424 _0423_
*425 _0424_
*426 _0425_
*427 _0426_
*428 _0427_
*429 _0428_
*430 _0429_
*431 _0430_
*432 _0431_
*433 _0432_
*434 _0433_
*435 _0434_
*436 _0435_
*437 _0436_
*438 _0437_
*439 _0438_
*440 _0439_
*441 _0440_
*442 _0441_
*443 _0442_
*444 _0443_
*445 _0444_
*446 _0445_
*447 _0446_
*448 _0447_
*449 _0448_
*450 _0449_
*451 _0450_
*452 _0451_
*453 _0452_
*454 _0453_
*455 _0454_
*456 _0455_
*457 _0456_
*458 _0457_
*459 _0458_
*460 _0459_
*461 _0460_
*462 _0461_
*463 _0462_
*464 _0463_
*465 _0464_
*466 _0465_
*467 _0466_
*468 _0467_
*469 _0468_
*470 _0469_
*471 _0470_
*472 _0471_
*473 _0472_
*474 _0473_
*475 _0474_
*476 _0475_
*477 _0476_
*478 _0477_
*479 _0478_
*480 _0479_
*481 _0480_
*482 _0481_
*483 _0482_
*484 _0483_
*485 _0484_
*486 _0485_
*487 _0486_
*488 _0487_
*489 _0488_
*490 _0489_
*491 _0490_
*492 _0491_
*493 _0492_
*494 _0493_
*495 _0494_
*496 _0495_
*497 _0496_
*498 _0497_
*499 _0498_
*500 _0499_
*501 _0500_
*502 _0501_
*503 _0502_
*504 _0503_
*505 _0504_
*506 _0505_
*507 _0506_
*508 _0507_
*509 _0508_
*510 _0509_
*511 _0510_
*512 _0511_
*513 _0512_
*514 _0513_
*515 _0514_
*516 _0515_
*517 _0516_
*518 _0517_
*519 _0518_
*520 _0519_
*521 _0520_
*522 _0521_
*523 _0522_
*524 _0523_
*525 _0524_
*526 _0525_
*527 _0526_
*528 _0527_
*529 _0528_
*530 _0529_
*531 _0530_
*532 _0531_
*533 _0532_
*534 _0533_
*535 _0534_
*536 _0535_
*537 _0536_
*538 _0537_
*539 _0538_
*540 _0539_
*541 _0540_
*542 _0541_
*543 _0542_
*544 _0543_
*545 _0544_
*546 _0545_
*547 _0546_
*548 _0547_
*549 _0548_
*550 _0549_
*551 _0550_
*552 _0551_
*553 _0552_
*554 _0553_
*555 _0554_
*556 _0555_
*557 _0556_
*558 _0557_
*559 _0558_
*560 _0559_
*561 _0560_
*562 _0561_
*563 _0562_
*564 _0563_
*565 _0564_
*566 _0565_
*567 _0566_
*568 _0567_
*569 _0568_
*570 _0569_
*571 _0570_
*572 _0571_
*573 _0572_
*574 _0573_
*575 _0574_
*576 _0575_
*577 _0576_
*578 _0577_
*579 _0578_
*580 bit_counter[0]
*581 bit_counter[1]
*582 bit_counter[2]
*583 bit_counter[3]
*584 bit_counter[4]
*585 bit_counter[5]
*586 bit_counter[6]
*587 bit_counter[7]
*588 clk
*589 ena
*590 frame_complete
*591 frame_fault
*592 rst_n
*593 temporal_fault
*594 u_base_edge\.previous_in
*595 u_base_fsm\.state[0]
*596 u_base_fsm\.state[1]
*597 u_base_fsm\.state[2]
*598 u_base_fsm\.state[3]
*599 u_base_fsm\.timer[0]
*600 u_base_fsm\.timer[1]
*601 u_base_fsm\.timer[2]
*602 u_base_fsm\.timer[3]
*603 u_base_mux\.reset_n
*604 u_base_mux\.room_temp[0]
*605 u_base_mux\.room_temp[10]
*606 u_base_mux\.room_temp[11]
*607 u_base_mux\.room_temp[12]
*608 u_base_mux\.room_temp[13]
*609 u_base_mux\.room_temp[14]
*610 u_base_mux\.room_temp[15]
*611 u_base_mux\.room_temp[1]
*612 u_base_mux\.room_temp[2]
*613 u_base_mux\.room_temp[3]
*614 u_base_mux\.room_temp[4]
*615 u_base_mux\.room_temp[5]
*616 u_base_mux\.room_temp[6]
*617 u_base_mux\.room_temp[7]
*618 u_base_mux\.room_temp[8]
*619 u_base_mux\.room_temp[9]
*620 u_base_mux\.serial_decode\.constant[0]
*621 u_base_mux\.serial_decode\.constant[10]
*622 u_base_mux\.serial_decode\.constant[11]
*623 u_base_mux\.serial_decode\.constant[12]
*624 u_base_mux\.serial_decode\.constant[13]
*625 u_base_mux\.serial_decode\.constant[14]
*626 u_base_mux\.serial_decode\.constant[15]
*627 u_base_mux\.serial_decode\.constant[16]
*628 u_base_mux\.serial_decode\.constant[17]
*629 u_base_mux\.serial_decode\.constant[18]
*630 u_base_mux\.serial_decode\.constant[19]
*631 u_base_mux\.serial_decode\.constant[1]
*632 u_base_mux\.serial_decode\.constant[20]
*633 u_base_mux\.serial_decode\.constant[21]
*634 u_base_mux\.serial_decode\.constant[22]
*635 u_base_mux\.serial_decode\.constant[23]
*636 u_base_mux\.serial_decode\.constant[24]
*637 u_base_mux\.serial_decode\.constant[25]
*638 u_base_mux\.serial_decode\.constant[26]
*639 u_base_mux\.serial_decode\.constant[27]
*640 u_base_mux\.serial_decode\.constant[28]
*641 u_base_mux\.serial_decode\.constant[29]
*642 u_base_mux\.serial_decode\.constant[2]
*643 u_base_mux\.serial_decode\.constant[30]
*644 u_base_mux\.serial_decode\.constant[31]
*645 u_base_mux\.serial_decode\.constant[3]
*646 u_base_mux\.serial_decode\.constant[4]
*647 u_base_mux\.serial_decode\.constant[5]
*648 u_base_mux\.serial_decode\.constant[6]
*649 u_base_mux\.serial_decode\.constant[7]
*650 u_base_mux\.serial_decode\.constant[8]
*651 u_base_mux\.serial_decode\.constant[9]
*652 u_base_mux\.serial_decode\.data_validate\.preamble[0]
*653 u_base_mux\.serial_decode\.data_validate\.preamble[10]
*654 u_base_mux\.serial_decode\.data_validate\.preamble[11]
*655 u_base_mux\.serial_decode\.data_validate\.preamble[12]
*656 u_base_mux\.serial_decode\.data_validate\.preamble[13]
*657 u_base_mux\.serial_decode\.data_validate\.preamble[14]
*658 u_base_mux\.serial_decode\.data_validate\.preamble[15]
*659 u_base_mux\.serial_decode\.data_validate\.preamble[16]
*660 u_base_mux\.serial_decode\.data_validate\.preamble[17]
*661 u_base_mux\.serial_decode\.data_validate\.preamble[18]
*662 u_base_mux\.serial_decode\.data_validate\.preamble[19]
*663 u_base_mux\.serial_decode\.data_validate\.preamble[1]
*664 u_base_mux\.serial_decode\.data_validate\.preamble[20]
*665 u_base_mux\.serial_decode\.data_validate\.preamble[21]
*666 u_base_mux\.serial_decode\.data_validate\.preamble[22]
*667 u_base_mux\.serial_decode\.data_validate\.preamble[23]
*668 u_base_mux\.serial_decode\.data_validate\.preamble[24]
*669 u_base_mux\.serial_decode\.data_validate\.preamble[25]
*670 u_base_mux\.serial_decode\.data_validate\.preamble[26]
*671 u_base_mux\.serial_decode\.data_validate\.preamble[27]
*672 u_base_mux\.serial_decode\.data_validate\.preamble[28]
*673 u_base_mux\.serial_decode\.data_validate\.preamble[29]
*674 u_base_mux\.serial_decode\.data_validate\.preamble[2]
*675 u_base_mux\.serial_decode\.data_validate\.preamble[30]
*676 u_base_mux\.serial_decode\.data_validate\.preamble[31]
*677 u_base_mux\.serial_decode\.data_validate\.preamble[3]
*678 u_base_mux\.serial_decode\.data_validate\.preamble[4]
*679 u_base_mux\.serial_decode\.data_validate\.preamble[5]
*680 u_base_mux\.serial_decode\.data_validate\.preamble[6]
*681 u_base_mux\.serial_decode\.data_validate\.preamble[7]
*682 u_base_mux\.serial_decode\.data_validate\.preamble[8]
*683 u_base_mux\.serial_decode\.data_validate\.preamble[9]
*684 u_base_mux\.serial_decode\.data_validate\.type_2[0]
*685 u_base_mux\.serial_decode\.data_validate\.type_2[10]
*686 u_base_mux\.serial_decode\.data_validate\.type_2[11]
*687 u_base_mux\.serial_decode\.data_validate\.type_2[12]
*688 u_base_mux\.serial_decode\.data_validate\.type_2[13]
*689 u_base_mux\.serial_decode\.data_validate\.type_2[14]
*690 u_base_mux\.serial_decode\.data_validate\.type_2[15]
*691 u_base_mux\.serial_decode\.data_validate\.type_2[1]
*692 u_base_mux\.serial_decode\.data_validate\.type_2[2]
*693 u_base_mux\.serial_decode\.data_validate\.type_2[3]
*694 u_base_mux\.serial_decode\.data_validate\.type_2[4]
*695 u_base_mux\.serial_decode\.data_validate\.type_2[5]
*696 u_base_mux\.serial_decode\.data_validate\.type_2[6]
*697 u_base_mux\.serial_decode\.data_validate\.type_2[7]
*698 u_base_mux\.serial_decode\.data_validate\.type_2[8]
*699 u_base_mux\.serial_decode\.data_validate\.type_2[9]
*700 u_base_mux\.serial_decode\.preamble_or_data
*701 u_base_mux\.serial_decode\.shift_register[96]
*702 u_sentinel_top\.previous_in
*703 u_sentinel_top\.u_frame_fsm\.current_state[0]
*704 u_sentinel_top\.u_frame_fsm\.current_state[1]
*705 u_sentinel_top\.u_frame_fsm\.current_state[2]
*706 u_sentinel_top\.u_frame_fsm\.current_state[3]
*707 u_sentinel_top\.u_frame_fsm\.frame_started
*708 u_sentinel_top\.u_frame_fsm\.prev_reception_active
*709 u_sentinel_top\.u_timing_sentinel\.current_state[0]
*710 u_sentinel_top\.u_timing_sentinel\.current_state[1]
*711 u_sentinel_top\.u_timing_sentinel\.current_state[2]
*712 u_sentinel_top\.u_timing_sentinel\.current_state[3]
*713 u_sentinel_top\.u_timing_sentinel\.interval_counter[0]
*714 u_sentinel_top\.u_timing_sentinel\.interval_counter[1]
*715 u_sentinel_top\.u_timing_sentinel\.interval_counter[2]
*716 u_sentinel_top\.u_timing_sentinel\.interval_counter[3]
*717 u_sentinel_top\.u_timing_sentinel\.interval_counter[4]
*718 u_sentinel_top\.u_timing_sentinel\.interval_counter[5]
*719 u_sentinel_top\.u_timing_sentinel\.interval_counter[6]
*720 u_sentinel_top\.u_timing_sentinel\.interval_counter[7]
*721 ui_in[0]
*722 ui_in[1]
*723 ui_in[2]
*724 ui_in[3]
*725 ui_in[4]
*726 ui_in[5]
*727 ui_in[6]
*728 ui_in[7]
*729 uio_in[0]
*730 uio_in[1]
*731 uio_in[2]
*732 uio_in[3]
*733 uio_in[4]
*734 uio_in[5]
*735 uio_in[6]
*736 uio_in[7]
*737 uio_oe[0]
*738 uio_oe[1]
*739 uio_oe[2]
*740 uio_oe[3]
*741 uio_oe[4]
*742 uio_oe[5]
*743 uio_oe[6]
*744 uio_oe[7]
*745 uio_out[0]
*746 uio_out[1]
*747 uio_out[2]
*748 uio_out[3]
*749 uio_out[4]
*750 uio_out[5]
*751 uio_out[6]
*752 uio_out[7]
*753 uo_out[0]
*754 uo_out[1]
*755 uo_out[2]
*756 uo_out[3]
*757 uo_out[4]
*758 uo_out[5]
*759 uo_out[6]
*760 uo_out[7]
*763 clknet_4_1_0_clk
*764 clknet_4_0_0_clk
*765 clknet_0_clk
*766 clknet_4_2_0_clk
*767 clknet_4_3_0_clk
*768 clknet_4_4_0_clk
*769 clknet_4_5_0_clk
*770 clknet_4_6_0_clk
*771 clknet_4_7_0_clk
*772 clknet_4_8_0_clk
*773 clknet_4_9_0_clk
*774 clknet_4_10_0_clk
*775 clknet_4_11_0_clk
*776 clknet_4_12_0_clk
*777 clknet_4_13_0_clk
*778 clknet_4_14_0_clk
*779 clknet_4_15_0_clk
*780 _0579_
*781 _0580_
*782 _0581_
*783 _0582_
*784 _0583_
*785 _0584_
*786 _0585_
*787 _0586_
*788 _0587_
*789 _0588_
*790 _0589_
*791 _0590_
*792 _0591_
*793 _0592_
*794 _0593_
*795 _0594_
*796 _0595_
*797 _0596_
*798 _0597_
*799 _0598_
*800 _0599_
*801 _0600_
*802 _0601_
*803 _0602_
*804 _0603_
*805 _0604_
*806 _0605_
*807 _0606_
*808 _0607_
*809 _0608_
*810 _0609_
*811 _0610_
*812 _0611_
*813 _0612_
*814 _0613_
*815 _0614_
*816 _0615_
*817 _0616_
*818 _0617_
*819 _0618_
*820 _0619_
*821 _0620_
*822 _0621_
*823 _0622_
*824 _0623_
*825 _0624_
*826 _0625_
*827 _0626_
*828 _0627_
*829 _0628_
*830 _0629_
*831 _0630_
*832 _0631_
*833 _0632_
*834 _0633_
*835 _0634_
*836 _0635_
*837 _0636_
*838 _0637_
*839 _0638_
*840 _0639_
*841 _0640_
*842 _0641_
*843 _0642_
*844 _0643_
*845 _0644_
*846 _0645_
*847 _0646_
*848 _0647_
*849 _0648_
*850 _0649_
*851 _0650_
*852 _0651_
*853 _0652_
*854 _0653_
*855 _0654_
*856 _0655_
*857 _0656_
*858 _0657_
*859 _0658_
*860 _0659_
*861 _0660_
*862 _0661_
*863 _0662_
*864 _0663_
*865 _0664_
*866 _0665_
*867 _0666_
*868 _0667_
*869 _0668_
*870 _0669_
*871 _0670_
*872 _0671_
*873 _0672_
*874 _0673_
*875 _0674_
*876 _0675_
*877 _0676_
*878 _0677_
*879 _0678_
*880 _0679_
*881 _0680_
*882 _0681_
*883 _0682_
*884 _0683_
*885 _0684_
*886 _0685_
*887 _0686_
*888 _0687_
*889 _0688_
*890 _0689_
*891 _0690_
*892 _0691_
*893 _0692_
*894 _0693_
*895 _0694_
*896 _0695_
*897 _0696_
*898 _0697_
*899 _0698_
*900 _0699_
*901 _0700_
*902 _0701_
*903 _0702_
*904 _0703_
*905 _0704_
*906 _0705_
*907 _0706_
*908 _0707_
*909 _0708_
*910 _0709_
*911 _0710_
*912 _0711_
*913 _0712_
*914 _0713_
*915 _0714_
*916 _0715_
*917 _0716_
*918 _0717_
*919 _0718_
*920 _0719_
*921 _0720_
*922 _0721_
*923 _0722_
*924 _0723_
*925 _0724_
*926 _0725_
*927 _0726_
*928 _0727_
*929 _0728_
*930 _0729_
*931 _0730_
*932 _0731_
*933 _0732_
*934 _0733_
*935 _0734_
*936 _0735_
*937 _0736_
*938 _0737_
*939 _0738_
*940 _0739_
*941 _0740_
*942 _0741_
*943 _0742_
*944 _0743_
*945 _0744_
*946 _0745_
*947 _0746_
*948 _0747_
*949 _0748_
*950 _0749_
*951 _0750_
*952 _0751_
*953 _0752_
*954 _0753_
*955 _0754_
*956 _0755_
*957 _0756_
*958 _0757_
*959 _0758_
*960 _0759_
*961 _0760_
*962 _0761_
*963 _0762_
*964 _0763_
*965 _0764_
*966 _0765_
*967 _0766_
*968 _0767_
*969 _0768_
*970 _0769_
*971 _0770_
*972 _0771_
*973 _0772_
*974 _0773_
*975 _0774_
*976 _0775_
*977 _0776_
*978 _0777_
*979 _0778_
*980 _0779_
*981 _0780_
*982 _0781_
*983 _0782_
*984 _0783_
*985 _0784_
*986 _0785_
*987 _0786_
*988 _0787_
*989 _0788_
*990 _0789_
*991 _0790_
*992 _0791_
*993 _0792_
*994 _0793_
*995 _0794_
*996 _0795_
*997 _0796_
*998 _0797_
*999 _0798_
*1000 _0799_
*1001 _0800_
*1002 _0801_
*1003 _0802_
*1004 _0803_
*1005 _0804_
*1006 _0805_
*1007 _0806_
*1008 _0807_
*1009 _0808_
*1010 _0809_
*1011 _0810_
*1012 _0811_
*1013 _0812_
*1014 _0813_
*1015 _0814_
*1016 _0815_
*1017 _0816_
*1018 _0817_
*1019 _0818_
*1020 _0819_
*1021 _0820_
*1022 _0821_
*1023 _0822_
*1024 _0823_
*1025 _0824_
*1026 _0825_
*1027 _0826_
*1028 _0827_
*1029 _0828_
*1030 _0829_
*1031 _0830_
*1032 _0831_
*1033 _0832_
*1034 _0833_
*1035 _0834_
*1036 _0835_
*1037 _0836_
*1038 _0837_
*1039 _0838_
*1040 _0839_
*1041 _0840_
*1042 _0841_
*1043 _0842_
*1044 _0843_
*1045 _0844_
*1046 _0845_
*1047 _0846_
*1048 _0847_
*1049 _0848_
*1050 _0849_
*1051 _0850_
*1052 _0851_
*1053 _0852_
*1054 _0853_
*1055 _0854_
*1056 _0855_
*1057 _0856_
*1058 _0857_
*1059 _0858_
*1060 _0859_
*1061 _0860_
*1062 _0861_
*1063 _0862_
*1064 _0863_
*1065 _0864_
*1066 _0865_
*1067 _0866_
*1068 _0867_
*1069 _0868_
*1070 _0869_
*1071 _0870_
*1072 _0871_
*1073 _0872_
*1074 _0873_
*1075 _0874_
*1076 _0875_
*1077 _0876_
*1078 _0877_
*1079 _0878_
*1080 _0879_
*1081 _0880_
*1082 _0881_
*1083 _0882_
*1084 _0883_
*1085 _0884_
*1086 _0885_
*1087 _0886_
*1088 _0887_
*1089 _0888_
*1090 _0889_
*1091 _0890_
*1092 _0891_
*1093 _0892_
*1094 _0893_
*1095 _0894_
*1096 _0895_
*1097 _0896_
*1098 _0897_
*1099 _0898_
*1100 _0899_
*1101 _0900_
*1102 _0901_
*1103 _0902_
*1104 _0903_
*1105 _0904_
*1106 _0905_
*1107 _0906_
*1108 _0907_
*1109 _0908_
*1110 _0909_
*1111 _0910_
*1112 _0911_
*1113 _0912_
*1114 _0913_
*1115 _0914_
*1116 _0915_
*1117 _0916_
*1118 _0917_
*1119 _0918_
*1120 _0919_
*1121 _0920_
*1122 _0921_
*1123 _0922_
*1124 _0923_
*1125 _0924_
*1126 _0925_
*1127 _0926_
*1128 _0927_
*1129 _0928_
*1130 _0929_
*1131 _0930_
*1132 _0931_
*1133 _0932_
*1134 _0933_
*1135 _0934_
*1136 _0935_
*1137 _0936_
*1138 _0937_
*1139 _0938_
*1140 _0939_
*1141 _0940_
*1142 _0941_
*1143 _0942_
*1144 _0943_
*1145 _0944_
*1146 _0945_
*1147 _0946_
*1148 _0947_
*1149 _0948_
*1150 _0949_
*1151 _0950_
*1152 _0951_
*1153 _0952_
*1154 _0953_
*1155 _0954_
*1156 _0955_
*1157 _0956_
*1158 _0957_
*1159 _0958_
*1160 _0959_
*1161 _0960_
*1162 _0961_
*1163 _0962_
*1164 _0963_
*1165 _0964_
*1166 _0965_
*1167 _0966_
*1168 _0967_
*1169 _0968_
*1170 _0969_
*1171 _0970_
*1172 _0971_
*1173 _0972_
*1174 _0973_
*1175 _0974_
*1176 _0975_
*1177 _0976_
*1178 _0977_
*1179 _0978_
*1180 _0979_
*1181 _0980_
*1182 _0981_
*1183 _0982_
*1184 _0983_
*1185 _0984_
*1186 _0985_
*1187 _0986_
*1188 _0987_
*1189 _0988_
*1190 _0989_
*1191 _0990_
*1192 _0991_
*1193 _0992_
*1194 _0993_
*1195 _0994_
*1196 _0995_
*1197 _0996_
*1198 _0997_
*1199 _0998_
*1200 _0999_
*1201 _1000_
*1202 _1001_
*1203 _1002_
*1204 _1003_
*1205 _1004_
*1206 _1005_
*1207 _1006_
*1208 _1007_
*1209 _1008_
*1210 _1009_
*1211 _1010_
*1212 _1011_
*1213 _1012_
*1214 _1013_
*1215 _1014_
*1216 _1015_
*1217 _1016_
*1218 _1017_
*1219 _1018_
*1220 _1019_
*1221 _1020_
*1222 _1021_
*1223 _1022_
*1224 _1023_
*1225 _1024_
*1226 _1025_
*1227 _1026_
*1228 _1027_
*1229 _1028_
*1230 _1029_
*1231 _1030_
*1232 _1031_
*1233 _1032_
*1234 _1033_
*1235 _1034_
*1236 _1035_
*1237 _1036_
*1238 _1037_
*1239 _1038_
*1240 _1039_
*1241 _1040_
*1242 _1041_
*1243 _1042_
*1244 _1043_
*1245 _1044_
*1246 _1045_
*1247 _1046_
*1248 _1047_
*1249 _1048_
*1250 _1049_
*1251 _1050_
*1252 _1051_
*1253 _1052_
*1254 _1053_
*1255 _1054_
*1256 _1055_
*1257 _1056_
*1258 _1057_
*1259 _1058_
*1260 _1059_
*1261 _1060_
*1262 _1061_
*1263 _1062_
*1264 _1063_
*1265 _1064_
*1266 _1065_
*1267 _1066_
*1268 _1067_
*1269 _1068_
*1270 _1069_
*1271 _1070_
*1272 _1071_
*1273 _1072_
*1274 _1073_
*1275 _1074_
*1276 _1075_
*1277 _1076_
*1278 _1077_
*1279 _1078_
*1280 _1079_
*1281 _1080_
*1282 _1081_
*1283 _1082_
*1284 _1083_
*1285 _1084_
*1286 _1085_
*1287 _1086_
*1288 _1087_
*1289 _1088_
*1290 _1089_
*1291 _1090_
*1292 _1091_
*1293 _1092_
*1294 _1093_
*1295 _1094_
*1296 _1095_
*1297 _1096_
*1298 _1097_
*1299 _1098_
*1300 _1099_
*1301 _1100_
*1302 _1101_
*1303 _1102_
*1304 _1103_
*1305 _1104_
*1306 _1105_
*1307 _1106_
*1308 _1107_
*1309 _1108_
*1310 _1109_
*1311 _1110_
*1312 _1111_
*1313 _1112_
*1314 _1113_
*1315 _1114_
*1316 _1115_
*1317 _1116_
*1318 _1117_
*1319 _1118_
*1320 _1119_
*1321 _1120_
*1322 _1121_
*1323 _1122_
*1324 _1123_
*1325 _1124_
*1326 _1125_
*1327 _1126_
*1328 _1127_
*1329 _1128_
*1330 _1129_
*1331 _1130_
*1332 _1131_
*1333 _1132_
*1334 _1133_
*1335 _1134_
*1336 _1135_
*1337 _1136_
*1338 _1137_
*1339 _1138_
*1340 _1139_
*1341 _1140_
*1342 _1141_
*1343 _1142_
*1344 _1143_
*1345 _1144_
*1346 _1145_
*1347 _1146_
*1348 _1147_
*1349 _1148_
*1350 _1149_
*1351 _1150_
*1352 _1151_
*1353 _1152_
*1354 _1153_
*1355 _1154_
*1356 _1155_
*1357 _1156_
*1358 _1157_
*1359 _1158_
*1360 _1159_
*1361 _1160_
*1362 _1161_
*1363 _1162_
*1364 _1163_
*1365 _1164_
*1366 _1165_
*1367 _1166_
*1368 _1167_
*1369 _1168_
*1370 _1169_
*1371 _1170_
*1372 _1171_
*1373 _1172_
*1374 _1173_
*1375 _1174_
*1376 _1175_
*1377 _1176_
*1378 _1177_
*1379 _1178_
*1380 _1179_
*1381 _1180_
*1382 _1181_
*1383 _1182_
*1384 _1183_
*1385 _1184_
*1386 _1185_
*1387 _1186_
*1388 _1187_
*1389 _1188_
*1390 _1189_
*1391 _1190_
*1392 _1191_
*1393 _1192_
*1394 _1193_
*1395 _1194_
*1396 _1195_
*1397 _1196_
*1398 _1197_
*1399 _1198_
*1400 _1199_
*1401 _1200_
*1402 _1201_
*1403 _1202_
*1404 _1203_
*1405 _1204_
*1406 _1205_
*1407 _1206_
*1408 _1207_
*1409 _1208_
*1410 _1209_
*1411 _1210_
*1412 _1211_
*1413 _1212_
*1414 _1213_
*1415 _1214_
*1416 _1215_
*1417 _1216_
*1418 _1217_
*1419 _1218_
*1420 _1219_
*1421 _1220_
*1422 _1221_
*1423 _1222_
*1424 _1223_
*1425 _1224_
*1426 _1225_
*1427 _1226_
*1428 _1227_
*1429 _1228_
*1430 _1229_
*1431 _1230_
*1432 _1231_
*1433 _1232_
*1434 _1233_
*1435 _1234_
*1436 _1235_
*1437 _1236_
*1438 _1237_
*1439 _1238_
*1440 _1239_
*1441 _1240_
*1442 _1241_
*1443 _1242_
*1444 _1243_
*1445 _1244_
*1446 _1245_
*1447 _1246_
*1448 _1247_
*1449 _1248_
*1450 _1249_
*1451 _1250_
*1452 _1251_
*1453 _1252_
*1454 _1253_
*1455 _1254_
*1456 _1255_
*1457 _1256_
*1458 _1257_
*1459 _1258_
*1460 _1259_
*1461 _1260_
*1462 _1261_
*1463 _1262_
*1464 _1263_
*1465 _1264_
*1466 _1265_
*1467 _1266_
*1468 _1267_
*1469 _1268_
*1470 _1269_
*1471 _1270_
*1472 _1271_
*1473 _1272_
*1474 _1273_
*1475 _1274_
*1476 _1275_
*1477 _1276_
*1478 _1277_
*1479 _1278_
*1480 _1279_
*1481 _1280_
*1482 _1281_
*1483 _1282_
*1484 _1283_
*1485 _1284_
*1486 _1285_
*1487 _1286_
*1488 _1287_
*1489 _1288_
*1490 _1289_
*1491 _1290_
*1492 _1291_
*1493 _1292_
*1494 _1293_
*1495 _1294_
*1496 _1295_
*1497 _1296_
*1498 _1297_
*1499 _1298_
*1500 _1299_
*1501 _1300_
*1502 _1301_
*1503 _1302_
*1504 _1303_
*1505 _1304_
*1506 _1305_
*1507 _1306_
*1508 _1307_
*1509 _1308_
*1510 _1309_
*1511 _1310_
*1512 _1311_
*1513 _1312_
*1514 _1313_
*1515 _1314_
*1516 _1315_
*1517 _1316_
*1518 _1317_
*1519 _1318_
*1520 _1319_
*1521 PHY_0
*1522 PHY_1
*1523 PHY_2
*1524 PHY_3
*1525 PHY_4
*1526 PHY_5
*1527 PHY_6
*1528 PHY_7
*1529 PHY_8
*1530 PHY_9
*1531 PHY_10
*1532 PHY_11
*1533 PHY_12
*1534 PHY_13
*1535 PHY_14
*1536 PHY_15
*1537 PHY_16
*1538 PHY_17
*1539 PHY_18
*1540 PHY_19
*1541 PHY_20
*1542 PHY_21
*1543 PHY_22
*1544 PHY_23
*1545 PHY_24
*1546 PHY_25
*1547 PHY_26
*1548 PHY_27
*1549 PHY_28
*1550 PHY_29
*1551 PHY_30
*1552 PHY_31
*1553 PHY_32
*1554 PHY_33
*1555 PHY_34
*1556 PHY_35
*1557 PHY_36
*1558 PHY_37
*1559 PHY_38
*1560 PHY_39
*1561 PHY_40
*1562 PHY_41
*1563 PHY_42
*1564 PHY_43
*1565 PHY_44
*1566 PHY_45
*1567 PHY_46
*1568 PHY_47
*1569 PHY_48
*1570 PHY_49
*1571 PHY_50
*1572 PHY_51
*1573 PHY_52
*1574 PHY_53
*1575 PHY_54
*1576 PHY_55
*1577 PHY_56
*1578 PHY_57
*1579 PHY_58
*1580 PHY_59
*1581 PHY_60
*1582 PHY_61
*1583 PHY_62
*1584 PHY_63
*1585 PHY_64
*1586 PHY_65
*1587 PHY_66
*1588 PHY_67
*1589 PHY_68
*1590 PHY_69
*1591 PHY_70
*1592 PHY_71
*1593 PHY_72
*1594 PHY_73
*1595 PHY_74
*1596 PHY_75
*1597 PHY_76
*1598 PHY_77
*1599 TAP_78
*1600 TAP_79
*1601 TAP_80
*1602 TAP_81
*1603 TAP_82
*1604 TAP_83
*1605 TAP_84
*1606 TAP_85
*1607 TAP_86
*1608 TAP_87
*1609 TAP_88
*1610 TAP_89
*1611 TAP_90
*1612 TAP_91
*1613 TAP_92
*1614 TAP_93
*1615 TAP_94
*1616 TAP_95
*1617 TAP_96
*1618 TAP_97
*1619 TAP_98
*1620 TAP_99
*1621 TAP_100
*1622 TAP_101
*1623 TAP_102
*1624 TAP_103
*1625 TAP_104
*1626 TAP_105
*1627 TAP_106
*1628 TAP_107
*1629 TAP_108
*1630 TAP_109
*1631 TAP_110
*1632 TAP_111
*1633 TAP_112
*1634 TAP_113
*1635 TAP_114
*1636 TAP_115
*1637 TAP_116
*1638 TAP_117
*1639 TAP_118
*1640 TAP_119
*1641 TAP_120
*1642 TAP_121
*1643 TAP_122
*1644 TAP_123
*1645 TAP_124
*1646 TAP_125
*1647 TAP_126
*1648 TAP_127
*1649 TAP_128
*1650 TAP_129
*1651 TAP_130
*1652 TAP_131
*1653 TAP_132
*1654 TAP_133
*1655 TAP_134
*1656 TAP_135
*1657 TAP_136
*1658 TAP_137
*1659 TAP_138
*1660 TAP_139
*1661 TAP_140
*1662 TAP_141
*1663 TAP_142
*1664 TAP_143
*1665 TAP_144
*1666 TAP_145
*1667 TAP_146
*1668 TAP_147
*1669 TAP_148
*1670 TAP_149
*1671 TAP_150
*1672 TAP_151
*1673 TAP_152
*1674 TAP_153
*1675 TAP_154
*1676 TAP_155
*1677 TAP_156
*1678 TAP_157
*1679 TAP_158
*1680 TAP_159
*1681 TAP_160
*1682 TAP_161
*1683 TAP_162
*1684 TAP_163
*1685 TAP_164
*1686 TAP_165
*1687 TAP_166
*1688 TAP_167
*1689 TAP_168
*1690 TAP_169
*1691 TAP_170
*1692 TAP_171
*1693 TAP_172
*1694 TAP_173
*1695 TAP_174
*1696 TAP_175
*1697 TAP_176
*1698 TAP_177
*1699 TAP_178
*1700 TAP_179
*1701 TAP_180
*1702 TAP_181
*1703 TAP_182
*1704 TAP_183
*1705 TAP_184
*1706 TAP_185
*1707 TAP_186
*1708 TAP_187
*1709 TAP_188
*1710 TAP_189
*1711 TAP_190
*1712 TAP_191
*1713 TAP_192
*1714 TAP_193
*1715 TAP_194
*1716 TAP_195
*1717 TAP_196
*1718 TAP_197
*1719 TAP_198
*1720 TAP_199
*1721 TAP_200
*1722 TAP_201
*1723 TAP_202
*1724 TAP_203
*1725 TAP_204
*1726 TAP_205
*1727 TAP_206
*1728 TAP_207
*1729 TAP_208
*1730 TAP_209
*1731 TAP_210
*1732 TAP_211
*1733 TAP_212
*1734 TAP_213
*1735 TAP_214
*1736 TAP_215
*1737 TAP_216
*1738 TAP_217
*1739 TAP_218
*1740 TAP_219
*1741 TAP_220
*1742 TAP_221
*1743 TAP_222
*1744 TAP_223
*1745 TAP_224
*1746 TAP_225
*1747 TAP_226
*1748 TAP_227
*1749 TAP_228
*1750 TAP_229
*1751 TAP_230
*1752 TAP_231
*1753 TAP_232
*1754 TAP_233
*1755 TAP_234
*1756 TAP_235
*1757 TAP_236
*1758 TAP_237
*1759 TAP_238
*1760 TAP_239
*1761 TAP_240
*1762 TAP_241
*1763 TAP_242
*1764 TAP_243
*1765 TAP_244
*1766 TAP_245
*1767 TAP_246
*1768 TAP_247
*1769 TAP_248
*1770 TAP_249
*1771 TAP_250
*1772 TAP_251
*1773 TAP_252
*1774 TAP_253
*1775 TAP_254
*1776 TAP_255
*1777 TAP_256
*1778 TAP_257
*1779 TAP_258
*1780 TAP_259
*1781 TAP_260
*1782 TAP_261
*1783 TAP_262
*1784 TAP_263
*1785 TAP_264
*1786 TAP_265
*1787 TAP_266
*1788 TAP_267
*1789 TAP_268
*1790 TAP_269
*1791 TAP_270
*1792 TAP_271
*1793 TAP_272
*1794 TAP_273
*1795 TAP_274
*1796 TAP_275
*1797 TAP_276
*1798 TAP_277
*1799 TAP_278
*1800 TAP_279
*1801 TAP_280
*1802 TAP_281
*1803 TAP_282
*1804 TAP_283
*1805 TAP_284
*1806 TAP_285
*1807 TAP_286
*1808 TAP_287
*1809 TAP_288
*1810 TAP_289
*1811 TAP_290
*1812 TAP_291
*1813 TAP_292
*1814 TAP_293
*1815 TAP_294
*1816 TAP_295
*1817 TAP_296
*1818 TAP_297
*1819 TAP_298
*1820 TAP_299
*1821 TAP_300
*1822 TAP_301
*1823 TAP_302
*1824 clkbuf_4_1_0_clk
*1825 clkbuf_4_0_0_clk
*1826 clkbuf_0_clk
*1827 clkbuf_4_2_0_clk
*1828 clkbuf_4_3_0_clk
*1829 clkbuf_4_4_0_clk
*1830 clkbuf_4_5_0_clk
*1831 clkbuf_4_6_0_clk
*1832 clkbuf_4_7_0_clk
*1833 clkbuf_4_8_0_clk
*1834 clkbuf_4_9_0_clk
*1835 clkbuf_4_10_0_clk
*1836 clkbuf_4_11_0_clk
*1837 clkbuf_4_12_0_clk
*1838 clkbuf_4_13_0_clk
*1839 clkbuf_4_14_0_clk
*1840 clkbuf_4_15_0_clk
*1841 FILLER_0_3
*1842 FILLER_0_11
*1843 FILLER_0_19
*1844 FILLER_0_27
*1845 FILLER_0_29
*1846 FILLER_0_31
*1847 FILLER_0_39
*1848 FILLER_0_47
*1849 FILLER_0_55
*1850 FILLER_0_59
*1851 FILLER_0_61
*1852 FILLER_0_69
*1853 FILLER_0_77
*1854 FILLER_0_85
*1855 FILLER_0_89
*1856 FILLER_0_91
*1857 FILLER_0_99
*1858 FILLER_0_107
*1859 FILLER_0_115
*1860 FILLER_0_119
*1861 FILLER_0_121
*1862 FILLER_0_129
*1863 FILLER_0_137
*1864 FILLER_0_145
*1865 FILLER_0_149
*1866 FILLER_0_151
*1867 FILLER_0_159
*1868 FILLER_0_167
*1869 FILLER_0_175
*1870 FILLER_0_179
*1871 FILLER_0_181
*1872 FILLER_0_189
*1873 FILLER_0_197
*1874 FILLER_0_205
*1875 FILLER_0_209
*1876 FILLER_0_211
*1877 FILLER_0_219
*1878 FILLER_0_227
*1879 FILLER_0_235
*1880 FILLER_0_239
*1881 FILLER_0_241
*1882 FILLER_0_249
*1883 FILLER_0_257
*1884 FILLER_0_265
*1885 FILLER_0_269
*1886 FILLER_0_271
*1887 FILLER_0_279
*1888 FILLER_0_287
*1889 FILLER_0_295
*1890 FILLER_0_299
*1891 FILLER_0_301
*1892 FILLER_0_309
*1893 FILLER_0_317
*1894 FILLER_0_325
*1895 FILLER_0_329
*1896 FILLER_0_331
*1897 FILLER_1_3
*1898 FILLER_1_11
*1899 FILLER_1_19
*1900 FILLER_1_27
*1901 FILLER_1_35
*1902 FILLER_1_43
*1903 FILLER_1_56
*1904 FILLER_1_61
*1905 FILLER_1_65
*1906 FILLER_1_67
*1907 FILLER_1_87
*1908 FILLER_1_91
*1909 FILLER_1_101
*1910 FILLER_1_117
*1911 FILLER_1_119
*1912 FILLER_1_121
*1913 FILLER_1_129
*1914 FILLER_1_137
*1915 FILLER_1_145
*1916 FILLER_1_153
*1917 FILLER_1_161
*1918 FILLER_1_169
*1919 FILLER_1_177
*1920 FILLER_1_179
*1921 FILLER_1_181
*1922 FILLER_1_189
*1923 FILLER_1_197
*1924 FILLER_1_205
*1925 FILLER_1_213
*1926 FILLER_1_221
*1927 FILLER_1_229
*1928 FILLER_1_237
*1929 FILLER_1_239
*1930 FILLER_1_241
*1931 FILLER_1_249
*1932 FILLER_1_257
*1933 FILLER_1_265
*1934 FILLER_1_273
*1935 FILLER_1_281
*1936 FILLER_1_289
*1937 FILLER_1_297
*1938 FILLER_1_299
*1939 FILLER_1_301
*1940 FILLER_1_309
*1941 FILLER_1_317
*1942 FILLER_1_325
*1943 FILLER_1_333
*1944 FILLER_2_3
*1945 FILLER_2_11
*1946 FILLER_2_19
*1947 FILLER_2_23
*1948 FILLER_2_25
*1949 FILLER_2_29
*1950 FILLER_2_31
*1951 FILLER_2_39
*1952 FILLER_2_43
*1953 FILLER_2_49
*1954 FILLER_2_57
*1955 FILLER_2_61
*1956 FILLER_2_63
*1957 FILLER_2_80
*1958 FILLER_2_82
*1959 FILLER_2_88
*1960 FILLER_2_95
*1961 FILLER_2_103
*1962 FILLER_2_108
*1963 FILLER_2_116
*1964 FILLER_2_124
*1965 FILLER_2_132
*1966 FILLER_2_140
*1967 FILLER_2_148
*1968 FILLER_2_151
*1969 FILLER_2_159
*1970 FILLER_2_167
*1971 FILLER_2_175
*1972 FILLER_2_182
*1973 FILLER_2_190
*1974 FILLER_2_198
*1975 FILLER_2_206
*1976 FILLER_2_211
*1977 FILLER_2_219
*1978 FILLER_2_227
*1979 FILLER_2_235
*1980 FILLER_2_243
*1981 FILLER_2_251
*1982 FILLER_2_259
*1983 FILLER_2_267
*1984 FILLER_2_269
*1985 FILLER_2_271
*1986 FILLER_2_279
*1987 FILLER_2_287
*1988 FILLER_2_295
*1989 FILLER_2_303
*1990 FILLER_2_311
*1991 FILLER_2_319
*1992 FILLER_2_327
*1993 FILLER_2_329
*1994 FILLER_2_331
*1995 FILLER_3_3
*1996 FILLER_3_11
*1997 FILLER_3_15
*1998 FILLER_3_17
*1999 FILLER_3_51
*2000 FILLER_3_59
*2001 FILLER_3_61
*2002 FILLER_3_65
*2003 FILLER_3_71
*2004 FILLER_3_73
*2005 FILLER_3_78
*2006 FILLER_3_82
*2007 FILLER_3_89
*2008 FILLER_3_97
*2009 FILLER_3_99
*2010 FILLER_3_108
*2011 FILLER_3_116
*2012 FILLER_3_121
*2013 FILLER_3_129
*2014 FILLER_3_137
*2015 FILLER_3_141
*2016 FILLER_3_162
*2017 FILLER_3_170
*2018 FILLER_3_178
*2019 FILLER_3_181
*2020 FILLER_3_183
*2021 FILLER_3_187
*2022 FILLER_3_198
*2023 FILLER_3_202
*2024 FILLER_3_210
*2025 FILLER_3_218
*2026 FILLER_3_241
*2027 FILLER_3_249
*2028 FILLER_3_257
*2029 FILLER_3_263
*2030 FILLER_3_271
*2031 FILLER_3_279
*2032 FILLER_3_287
*2033 FILLER_3_295
*2034 FILLER_3_299
*2035 FILLER_3_301
*2036 FILLER_3_309
*2037 FILLER_3_317
*2038 FILLER_3_325
*2039 FILLER_3_333
*2040 FILLER_4_3
*2041 FILLER_4_11
*2042 FILLER_4_19
*2043 FILLER_4_24
*2044 FILLER_4_28
*2045 FILLER_4_31
*2046 FILLER_4_33
*2047 FILLER_4_54
*2048 FILLER_4_86
*2049 FILLER_4_91
*2050 FILLER_4_95
*2051 FILLER_4_136
*2052 FILLER_4_140
*2053 FILLER_4_158
*2054 FILLER_4_162
*2055 FILLER_4_164
*2056 FILLER_4_188
*2057 FILLER_4_211
*2058 FILLER_4_222
*2059 FILLER_4_248
*2060 FILLER_4_274
*2061 FILLER_4_282
*2062 FILLER_4_287
*2063 FILLER_4_295
*2064 FILLER_4_303
*2065 FILLER_4_311
*2066 FILLER_4_319
*2067 FILLER_4_327
*2068 FILLER_4_329
*2069 FILLER_4_331
*2070 FILLER_5_3
*2071 FILLER_5_11
*2072 FILLER_5_19
*2073 FILLER_5_27
*2074 FILLER_5_48
*2075 FILLER_5_56
*2076 FILLER_5_61
*2077 FILLER_5_69
*2078 FILLER_5_117
*2079 FILLER_5_119
*2080 FILLER_5_121
*2081 FILLER_5_129
*2082 FILLER_5_137
*2083 FILLER_5_139
*2084 FILLER_5_160
*2085 FILLER_5_168
*2086 FILLER_5_176
*2087 FILLER_5_201
*2088 FILLER_5_205
*2089 FILLER_5_239
*2090 FILLER_5_241
*2091 FILLER_5_249
*2092 FILLER_5_257
*2093 FILLER_5_264
*2094 FILLER_5_272
*2095 FILLER_5_299
*2096 FILLER_5_301
*2097 FILLER_5_325
*2098 FILLER_5_333
*2099 FILLER_6_3
*2100 FILLER_6_11
*2101 FILLER_6_19
*2102 FILLER_6_23
*2103 FILLER_6_27
*2104 FILLER_6_29
*2105 FILLER_6_31
*2106 FILLER_6_39
*2107 FILLER_6_47
*2108 FILLER_6_55
*2109 FILLER_6_63
*2110 FILLER_6_71
*2111 FILLER_6_79
*2112 FILLER_6_87
*2113 FILLER_6_89
*2114 FILLER_6_91
*2115 FILLER_6_99
*2116 FILLER_6_107
*2117 FILLER_6_115
*2118 FILLER_6_123
*2119 FILLER_6_131
*2120 FILLER_6_139
*2121 FILLER_6_147
*2122 FILLER_6_149
*2123 FILLER_6_154
*2124 FILLER_6_162
*2125 FILLER_6_193
*2126 FILLER_6_201
*2127 FILLER_6_209
*2128 FILLER_6_211
*2129 FILLER_6_219
*2130 FILLER_6_227
*2131 FILLER_6_238
*2132 FILLER_6_246
*2133 FILLER_6_254
*2134 FILLER_6_262
*2135 FILLER_6_294
*2136 FILLER_6_302
*2137 FILLER_6_329
*2138 FILLER_6_331
*2139 FILLER_7_3
*2140 FILLER_7_48
*2141 FILLER_7_56
*2142 FILLER_7_64
*2143 FILLER_7_77
*2144 FILLER_7_85
*2145 FILLER_7_111
*2146 FILLER_7_119
*2147 FILLER_7_121
*2148 FILLER_7_152
*2149 FILLER_7_160
*2150 FILLER_7_168
*2151 FILLER_7_184
*2152 FILLER_7_192
*2153 FILLER_7_200
*2154 FILLER_7_208
*2155 FILLER_7_216
*2156 FILLER_7_224
*2157 FILLER_7_232
*2158 FILLER_7_241
*2159 FILLER_7_249
*2160 FILLER_7_257
*2161 FILLER_7_265
*2162 FILLER_7_273
*2163 FILLER_7_275
*2164 FILLER_7_283
*2165 FILLER_7_291
*2166 FILLER_7_299
*2167 FILLER_7_301
*2168 FILLER_7_309
*2169 FILLER_7_316
*2170 FILLER_7_320
*2171 FILLER_7_324
*2172 FILLER_7_332
*2173 FILLER_7_334
*2174 FILLER_8_3
*2175 FILLER_8_11
*2176 FILLER_8_15
*2177 FILLER_8_19
*2178 FILLER_8_28
*2179 FILLER_8_45
*2180 FILLER_8_77
*2181 FILLER_8_85
*2182 FILLER_8_89
*2183 FILLER_8_91
*2184 FILLER_8_95
*2185 FILLER_8_117
*2186 FILLER_8_119
*2187 FILLER_8_123
*2188 FILLER_8_127
*2189 FILLER_8_129
*2190 FILLER_8_158
*2191 FILLER_8_166
*2192 FILLER_8_174
*2193 FILLER_8_178
*2194 FILLER_8_190
*2195 FILLER_8_198
*2196 FILLER_8_206
*2197 FILLER_8_211
*2198 FILLER_8_219
*2199 FILLER_8_223
*2200 FILLER_8_244
*2201 FILLER_8_252
*2202 FILLER_8_260
*2203 FILLER_8_268
*2204 FILLER_8_291
*2205 FILLER_8_299
*2206 FILLER_8_307
*2207 FILLER_8_315
*2208 FILLER_8_323
*2209 FILLER_8_327
*2210 FILLER_8_329
*2211 FILLER_8_331
*2212 FILLER_9_3
*2213 FILLER_9_11
*2214 FILLER_9_58
*2215 FILLER_9_61
*2216 FILLER_9_65
*2217 FILLER_9_69
*2218 FILLER_9_77
*2219 FILLER_9_85
*2220 FILLER_9_93
*2221 FILLER_9_97
*2222 FILLER_9_115
*2223 FILLER_9_119
*2224 FILLER_9_121
*2225 FILLER_9_129
*2226 FILLER_9_137
*2227 FILLER_9_139
*2228 FILLER_9_144
*2229 FILLER_9_165
*2230 FILLER_9_173
*2231 FILLER_9_177
*2232 FILLER_9_179
*2233 FILLER_9_204
*2234 FILLER_9_238
*2235 FILLER_9_248
*2236 FILLER_9_252
*2237 FILLER_9_254
*2238 FILLER_9_282
*2239 FILLER_9_290
*2240 FILLER_9_298
*2241 FILLER_9_301
*2242 FILLER_9_303
*2243 FILLER_9_331
*2244 FILLER_10_3
*2245 FILLER_10_11
*2246 FILLER_10_19
*2247 FILLER_10_27
*2248 FILLER_10_29
*2249 FILLER_10_31
*2250 FILLER_10_39
*2251 FILLER_10_47
*2252 FILLER_10_49
*2253 FILLER_10_73
*2254 FILLER_10_81
*2255 FILLER_10_89
*2256 FILLER_10_91
*2257 FILLER_10_96
*2258 FILLER_10_100
*2259 FILLER_10_108
*2260 FILLER_10_116
*2261 FILLER_10_124
*2262 FILLER_10_132
*2263 FILLER_10_140
*2264 FILLER_10_144
*2265 FILLER_10_146
*2266 FILLER_10_154
*2267 FILLER_10_163
*2268 FILLER_10_167
*2269 FILLER_10_171
*2270 FILLER_10_179
*2271 FILLER_10_183
*2272 FILLER_10_187
*2273 FILLER_10_189
*2274 FILLER_10_214
*2275 FILLER_10_218
*2276 FILLER_10_220
*2277 FILLER_10_248
*2278 FILLER_10_255
*2279 FILLER_10_262
*2280 FILLER_10_266
*2281 FILLER_10_271
*2282 FILLER_10_279
*2283 FILLER_10_287
*2284 FILLER_10_295
*2285 FILLER_10_299
*2286 FILLER_10_324
*2287 FILLER_10_328
*2288 FILLER_10_331
*2289 FILLER_11_3
*2290 FILLER_11_11
*2291 FILLER_11_15
*2292 FILLER_11_17
*2293 FILLER_11_38
*2294 FILLER_11_46
*2295 FILLER_11_54
*2296 FILLER_11_58
*2297 FILLER_11_68
*2298 FILLER_11_76
*2299 FILLER_11_84
*2300 FILLER_11_88
*2301 FILLER_11_109
*2302 FILLER_11_117
*2303 FILLER_11_119
*2304 FILLER_11_124
*2305 FILLER_11_146
*2306 FILLER_11_154
*2307 FILLER_11_162
*2308 FILLER_11_170
*2309 FILLER_11_174
*2310 FILLER_11_176
*2311 FILLER_11_181
*2312 FILLER_11_189
*2313 FILLER_11_197
*2314 FILLER_11_203
*2315 FILLER_11_211
*2316 FILLER_11_219
*2317 FILLER_11_223
*2318 FILLER_11_225
*2319 FILLER_11_233
*2320 FILLER_11_237
*2321 FILLER_11_239
*2322 FILLER_11_241
*2323 FILLER_11_249
*2324 FILLER_11_257
*2325 FILLER_11_265
*2326 FILLER_11_273
*2327 FILLER_11_284
*2328 FILLER_11_292
*2329 FILLER_11_305
*2330 FILLER_11_317
*2331 FILLER_11_322
*2332 FILLER_11_330
*2333 FILLER_11_334
*2334 FILLER_12_3
*2335 FILLER_12_11
*2336 FILLER_12_15
*2337 FILLER_12_21
*2338 FILLER_12_28
*2339 FILLER_12_31
*2340 FILLER_12_39
*2341 FILLER_12_47
*2342 FILLER_12_51
*2343 FILLER_12_53
*2344 FILLER_12_77
*2345 FILLER_12_85
*2346 FILLER_12_111
*2347 FILLER_12_142
*2348 FILLER_12_151
*2349 FILLER_12_159
*2350 FILLER_12_161
*2351 FILLER_12_189
*2352 FILLER_12_197
*2353 FILLER_12_205
*2354 FILLER_12_209
*2355 FILLER_12_211
*2356 FILLER_12_219
*2357 FILLER_12_223
*2358 FILLER_12_227
*2359 FILLER_12_235
*2360 FILLER_12_243
*2361 FILLER_12_251
*2362 FILLER_12_259
*2363 FILLER_12_269
*2364 FILLER_12_274
*2365 FILLER_12_295
*2366 FILLER_12_319
*2367 FILLER_12_327
*2368 FILLER_12_329
*2369 FILLER_12_331
*2370 FILLER_13_3
*2371 FILLER_13_11
*2372 FILLER_13_15
*2373 FILLER_13_40
*2374 FILLER_13_51
*2375 FILLER_13_59
*2376 FILLER_13_68
*2377 FILLER_13_76
*2378 FILLER_13_84
*2379 FILLER_13_92
*2380 FILLER_13_103
*2381 FILLER_13_111
*2382 FILLER_13_119
*2383 FILLER_13_121
*2384 FILLER_13_132
*2385 FILLER_13_140
*2386 FILLER_13_148
*2387 FILLER_13_156
*2388 FILLER_13_164
*2389 FILLER_13_166
*2390 FILLER_13_172
*2391 FILLER_13_181
*2392 FILLER_13_185
*2393 FILLER_13_202
*2394 FILLER_13_210
*2395 FILLER_13_218
*2396 FILLER_13_237
*2397 FILLER_13_239
*2398 FILLER_13_241
*2399 FILLER_13_245
*2400 FILLER_13_247
*2401 FILLER_13_288
*2402 FILLER_13_296
*2403 FILLER_13_301
*2404 FILLER_13_303
*2405 FILLER_13_324
*2406 FILLER_13_332
*2407 FILLER_13_334
*2408 FILLER_14_3
*2409 FILLER_14_11
*2410 FILLER_14_19
*2411 FILLER_14_29
*2412 FILLER_14_31
*2413 FILLER_14_39
*2414 FILLER_14_41
*2415 FILLER_14_45
*2416 FILLER_14_67
*2417 FILLER_14_75
*2418 FILLER_14_83
*2419 FILLER_14_87
*2420 FILLER_14_89
*2421 FILLER_14_91
*2422 FILLER_14_95
*2423 FILLER_14_97
*2424 FILLER_14_101
*2425 FILLER_14_109
*2426 FILLER_14_117
*2427 FILLER_14_125
*2428 FILLER_14_133
*2429 FILLER_14_139
*2430 FILLER_14_154
*2431 FILLER_14_162
*2432 FILLER_14_170
*2433 FILLER_14_178
*2434 FILLER_14_186
*2435 FILLER_14_194
*2436 FILLER_14_202
*2437 FILLER_14_215
*2438 FILLER_14_217
*2439 FILLER_14_221
*2440 FILLER_14_225
*2441 FILLER_14_230
*2442 FILLER_14_236
*2443 FILLER_14_238
*2444 FILLER_14_257
*2445 FILLER_14_261
*2446 FILLER_14_269
*2447 FILLER_14_271
*2448 FILLER_14_275
*2449 FILLER_14_277
*2450 FILLER_14_281
*2451 FILLER_14_289
*2452 FILLER_14_297
*2453 FILLER_14_305
*2454 FILLER_14_313
*2455 FILLER_14_317
*2456 FILLER_14_327
*2457 FILLER_14_329
*2458 FILLER_14_331
*2459 FILLER_15_3
*2460 FILLER_15_11
*2461 FILLER_15_19
*2462 FILLER_15_40
*2463 FILLER_15_48
*2464 FILLER_15_52
*2465 FILLER_15_57
*2466 FILLER_15_59
*2467 FILLER_15_61
*2468 FILLER_15_65
*2469 FILLER_15_67
*2470 FILLER_15_76
*2471 FILLER_15_82
*2472 FILLER_15_90
*2473 FILLER_15_118
*2474 FILLER_15_121
*2475 FILLER_15_125
*2476 FILLER_15_127
*2477 FILLER_15_155
*2478 FILLER_15_163
*2479 FILLER_15_170
*2480 FILLER_15_174
*2481 FILLER_15_178
*2482 FILLER_15_184
*2483 FILLER_15_188
*2484 FILLER_15_190
*2485 FILLER_15_211
*2486 FILLER_15_221
*2487 FILLER_15_230
*2488 FILLER_15_238
*2489 FILLER_15_241
*2490 FILLER_15_249
*2491 FILLER_15_257
*2492 FILLER_15_265
*2493 FILLER_15_273
*2494 FILLER_15_281
*2495 FILLER_15_289
*2496 FILLER_15_297
*2497 FILLER_15_299
*2498 FILLER_15_301
*2499 FILLER_15_309
*2500 FILLER_15_317
*2501 FILLER_15_324
*2502 FILLER_15_332
*2503 FILLER_15_334
*2504 FILLER_16_3
*2505 FILLER_16_11
*2506 FILLER_16_19
*2507 FILLER_16_27
*2508 FILLER_16_29
*2509 FILLER_16_51
*2510 FILLER_16_59
*2511 FILLER_16_63
*2512 FILLER_16_67
*2513 FILLER_16_69
*2514 FILLER_16_120
*2515 FILLER_16_128
*2516 FILLER_16_132
*2517 FILLER_16_134
*2518 FILLER_16_140
*2519 FILLER_16_147
*2520 FILLER_16_149
*2521 FILLER_16_157
*2522 FILLER_16_161
*2523 FILLER_16_184
*2524 FILLER_16_192
*2525 FILLER_16_194
*2526 FILLER_16_203
*2527 FILLER_16_207
*2528 FILLER_16_209
*2529 FILLER_16_211
*2530 FILLER_16_219
*2531 FILLER_16_221
*2532 FILLER_16_230
*2533 FILLER_16_238
*2534 FILLER_16_246
*2535 FILLER_16_254
*2536 FILLER_16_256
*2537 FILLER_16_265
*2538 FILLER_16_291
*2539 FILLER_16_299
*2540 FILLER_16_329
*2541 FILLER_16_331
*2542 FILLER_17_3
*2543 FILLER_17_11
*2544 FILLER_17_41
*2545 FILLER_17_49
*2546 FILLER_17_84
*2547 FILLER_17_92
*2548 FILLER_17_114
*2549 FILLER_17_118
*2550 FILLER_17_121
*2551 FILLER_17_129
*2552 FILLER_17_137
*2553 FILLER_17_141
*2554 FILLER_17_147
*2555 FILLER_17_155
*2556 FILLER_17_163
*2557 FILLER_17_176
*2558 FILLER_17_181
*2559 FILLER_17_189
*2560 FILLER_17_199
*2561 FILLER_17_207
*2562 FILLER_17_215
*2563 FILLER_17_217
*2564 FILLER_17_226
*2565 FILLER_17_238
*2566 FILLER_17_241
*2567 FILLER_17_245
*2568 FILLER_17_249
*2569 FILLER_17_256
*2570 FILLER_17_258
*2571 FILLER_17_282
*2572 FILLER_17_286
*2573 FILLER_17_295
*2574 FILLER_17_299
*2575 FILLER_17_301
*2576 FILLER_17_303
*2577 FILLER_17_330
*2578 FILLER_17_334
*2579 FILLER_18_3
*2580 FILLER_18_11
*2581 FILLER_18_28
*2582 FILLER_18_31
*2583 FILLER_18_39
*2584 FILLER_18_47
*2585 FILLER_18_55
*2586 FILLER_18_63
*2587 FILLER_18_71
*2588 FILLER_18_79
*2589 FILLER_18_87
*2590 FILLER_18_89
*2591 FILLER_18_91
*2592 FILLER_18_99
*2593 FILLER_18_107
*2594 FILLER_18_115
*2595 FILLER_18_123
*2596 FILLER_18_138
*2597 FILLER_18_146
*2598 FILLER_18_151
*2599 FILLER_18_155
*2600 FILLER_18_173
*2601 FILLER_18_178
*2602 FILLER_18_207
*2603 FILLER_18_209
*2604 FILLER_18_211
*2605 FILLER_18_220
*2606 FILLER_18_229
*2607 FILLER_18_237
*2608 FILLER_18_245
*2609 FILLER_18_253
*2610 FILLER_18_258
*2611 FILLER_18_266
*2612 FILLER_18_274
*2613 FILLER_18_278
*2614 FILLER_18_286
*2615 FILLER_18_290
*2616 FILLER_18_312
*2617 FILLER_18_320
*2618 FILLER_18_328
*2619 FILLER_18_331
*2620 FILLER_19_3
*2621 FILLER_19_11
*2622 FILLER_19_19
*2623 FILLER_19_27
*2624 FILLER_19_35
*2625 FILLER_19_43
*2626 FILLER_19_51
*2627 FILLER_19_59
*2628 FILLER_19_88
*2629 FILLER_19_96
*2630 FILLER_19_104
*2631 FILLER_19_112
*2632 FILLER_19_116
*2633 FILLER_19_124
*2634 FILLER_19_132
*2635 FILLER_19_140
*2636 FILLER_19_148
*2637 FILLER_19_156
*2638 FILLER_19_164
*2639 FILLER_19_168
*2640 FILLER_19_178
*2641 FILLER_19_181
*2642 FILLER_19_189
*2643 FILLER_19_201
*2644 FILLER_19_209
*2645 FILLER_19_218
*2646 FILLER_19_226
*2647 FILLER_19_234
*2648 FILLER_19_238
*2649 FILLER_19_248
*2650 FILLER_19_257
*2651 FILLER_19_265
*2652 FILLER_19_291
*2653 FILLER_19_299
*2654 FILLER_19_301
*2655 FILLER_19_309
*2656 FILLER_19_313
*2657 FILLER_19_315
*2658 FILLER_19_323
*2659 FILLER_19_331
*2660 FILLER_20_3
*2661 FILLER_20_11
*2662 FILLER_20_19
*2663 FILLER_20_29
*2664 FILLER_20_74
*2665 FILLER_20_82
*2666 FILLER_20_91
*2667 FILLER_20_95
*2668 FILLER_20_100
*2669 FILLER_20_104
*2670 FILLER_20_106
*2671 FILLER_20_130
*2672 FILLER_20_134
*2673 FILLER_20_140
*2674 FILLER_20_146
*2675 FILLER_20_151
*2676 FILLER_20_158
*2677 FILLER_20_166
*2678 FILLER_20_170
*2679 FILLER_20_172
*2680 FILLER_20_185
*2681 FILLER_20_193
*2682 FILLER_20_197
*2683 FILLER_20_206
*2684 FILLER_20_211
*2685 FILLER_20_227
*2686 FILLER_20_235
*2687 FILLER_20_241
*2688 FILLER_20_249
*2689 FILLER_20_257
*2690 FILLER_20_265
*2691 FILLER_20_269
*2692 FILLER_20_271
*2693 FILLER_20_279
*2694 FILLER_20_287
*2695 FILLER_20_295
*2696 FILLER_20_303
*2697 FILLER_20_327
*2698 FILLER_20_329
*2699 FILLER_20_331
*2700 FILLER_21_3
*2701 FILLER_21_11
*2702 FILLER_21_19
*2703 FILLER_21_46
*2704 FILLER_21_54
*2705 FILLER_21_58
*2706 FILLER_21_61
*2707 FILLER_21_69
*2708 FILLER_21_77
*2709 FILLER_21_86
*2710 FILLER_21_90
*2711 FILLER_21_92
*2712 FILLER_21_127
*2713 FILLER_21_131
*2714 FILLER_21_133
*2715 FILLER_21_137
*2716 FILLER_21_145
*2717 FILLER_21_153
*2718 FILLER_21_157
*2719 FILLER_21_159
*2720 FILLER_21_181
*2721 FILLER_21_189
*2722 FILLER_21_197
*2723 FILLER_21_212
*2724 FILLER_21_220
*2725 FILLER_21_228
*2726 FILLER_21_232
*2727 FILLER_21_244
*2728 FILLER_21_252
*2729 FILLER_21_256
*2730 FILLER_21_264
*2731 FILLER_21_278
*2732 FILLER_21_286
*2733 FILLER_21_301
*2734 FILLER_21_305
*2735 FILLER_21_332
*2736 FILLER_21_334
*2737 FILLER_22_3
*2738 FILLER_22_7
*2739 FILLER_22_9
*2740 FILLER_22_51
*2741 FILLER_22_59
*2742 FILLER_22_67
*2743 FILLER_22_69
*2744 FILLER_22_91
*2745 FILLER_22_102
*2746 FILLER_22_126
*2747 FILLER_22_134
*2748 FILLER_22_138
*2749 FILLER_22_146
*2750 FILLER_22_151
*2751 FILLER_22_153
*2752 FILLER_22_175
*2753 FILLER_22_182
*2754 FILLER_22_184
*2755 FILLER_22_198
*2756 FILLER_22_203
*2757 FILLER_22_207
*2758 FILLER_22_209
*2759 FILLER_22_211
*2760 FILLER_22_219
*2761 FILLER_22_223
*2762 FILLER_22_228
*2763 FILLER_22_243
*2764 FILLER_22_251
*2765 FILLER_22_259
*2766 FILLER_22_291
*2767 FILLER_22_312
*2768 FILLER_22_322
*2769 FILLER_22_331
*2770 FILLER_23_3
*2771 FILLER_23_11
*2772 FILLER_23_19
*2773 FILLER_23_41
*2774 FILLER_23_49
*2775 FILLER_23_57
*2776 FILLER_23_59
*2777 FILLER_23_84
*2778 FILLER_23_92
*2779 FILLER_23_100
*2780 FILLER_23_108
*2781 FILLER_23_116
*2782 FILLER_23_121
*2783 FILLER_23_156
*2784 FILLER_23_164
*2785 FILLER_23_170
*2786 FILLER_23_178
*2787 FILLER_23_181
*2788 FILLER_23_189
*2789 FILLER_23_191
*2790 FILLER_23_200
*2791 FILLER_23_216
*2792 FILLER_23_239
*2793 FILLER_23_241
*2794 FILLER_23_249
*2795 FILLER_23_257
*2796 FILLER_23_265
*2797 FILLER_23_282
*2798 FILLER_23_290
*2799 FILLER_23_298
*2800 FILLER_23_301
*2801 FILLER_23_309
*2802 FILLER_23_317
*2803 FILLER_23_325
*2804 FILLER_23_333
*2805 FILLER_24_3
*2806 FILLER_24_11
*2807 FILLER_24_28
*2808 FILLER_24_31
*2809 FILLER_24_35
*2810 FILLER_24_41
*2811 FILLER_24_49
*2812 FILLER_24_57
*2813 FILLER_24_61
*2814 FILLER_24_66
*2815 FILLER_24_74
*2816 FILLER_24_79
*2817 FILLER_24_83
*2818 FILLER_24_87
*2819 FILLER_24_89
*2820 FILLER_24_91
*2821 FILLER_24_99
*2822 FILLER_24_103
*2823 FILLER_24_107
*2824 FILLER_24_112
*2825 FILLER_24_120
*2826 FILLER_24_128
*2827 FILLER_24_136
*2828 FILLER_24_138
*2829 FILLER_24_142
*2830 FILLER_24_151
*2831 FILLER_24_159
*2832 FILLER_24_167
*2833 FILLER_24_186
*2834 FILLER_24_190
*2835 FILLER_24_192
*2836 FILLER_24_199
*2837 FILLER_24_207
*2838 FILLER_24_209
*2839 FILLER_24_211
*2840 FILLER_24_219
*2841 FILLER_24_223
*2842 FILLER_24_249
*2843 FILLER_24_257
*2844 FILLER_24_265
*2845 FILLER_24_269
*2846 FILLER_24_271
*2847 FILLER_24_292
*2848 FILLER_24_300
*2849 FILLER_24_304
*2850 FILLER_24_309
*2851 FILLER_24_317
*2852 FILLER_24_325
*2853 FILLER_24_329
*2854 FILLER_24_331
*2855 FILLER_25_3
*2856 FILLER_25_11
*2857 FILLER_25_13
*2858 FILLER_25_30
*2859 FILLER_25_54
*2860 FILLER_25_58
*2861 FILLER_25_61
*2862 FILLER_25_89
*2863 FILLER_25_121
*2864 FILLER_25_129
*2865 FILLER_25_133
*2866 FILLER_25_140
*2867 FILLER_25_148
*2868 FILLER_25_156
*2869 FILLER_25_164
*2870 FILLER_25_172
*2871 FILLER_25_204
*2872 FILLER_25_212
*2873 FILLER_25_220
*2874 FILLER_25_228
*2875 FILLER_25_234
*2876 FILLER_25_246
*2877 FILLER_25_254
*2878 FILLER_25_258
*2879 FILLER_25_263
*2880 FILLER_25_271
*2881 FILLER_25_279
*2882 FILLER_25_287
*2883 FILLER_25_295
*2884 FILLER_25_299
*2885 FILLER_25_301
*2886 FILLER_25_328
*2887 FILLER_25_332
*2888 FILLER_25_334
*2889 FILLER_26_3
*2890 FILLER_26_11
*2891 FILLER_26_19
*2892 FILLER_26_23
*2893 FILLER_26_31
*2894 FILLER_26_39
*2895 FILLER_26_47
*2896 FILLER_26_55
*2897 FILLER_26_63
*2898 FILLER_26_69
*2899 FILLER_26_77
*2900 FILLER_26_85
*2901 FILLER_26_89
*2902 FILLER_26_91
*2903 FILLER_26_129
*2904 FILLER_26_151
*2905 FILLER_26_159
*2906 FILLER_26_167
*2907 FILLER_26_198
*2908 FILLER_26_202
*2909 FILLER_26_211
*2910 FILLER_26_219
*2911 FILLER_26_227
*2912 FILLER_26_235
*2913 FILLER_26_243
*2914 FILLER_26_251
*2915 FILLER_26_258
*2916 FILLER_26_264
*2917 FILLER_26_269
*2918 FILLER_26_295
*2919 FILLER_26_299
*2920 FILLER_26_326
*2921 FILLER_26_331
*2922 FILLER_27_3
*2923 FILLER_27_11
*2924 FILLER_27_19
*2925 FILLER_27_30
*2926 FILLER_27_38
*2927 FILLER_27_46
*2928 FILLER_27_48
*2929 FILLER_27_53
*2930 FILLER_27_84
*2931 FILLER_27_92
*2932 FILLER_27_100
*2933 FILLER_27_104
*2934 FILLER_27_110
*2935 FILLER_27_118
*2936 FILLER_27_121
*2937 FILLER_27_129
*2938 FILLER_27_133
*2939 FILLER_27_168
*2940 FILLER_27_174
*2941 FILLER_27_178
*2942 FILLER_27_187
*2943 FILLER_27_195
*2944 FILLER_27_224
*2945 FILLER_27_232
*2946 FILLER_27_241
*2947 FILLER_27_245
*2948 FILLER_27_247
*2949 FILLER_27_255
*2950 FILLER_27_257
*2951 FILLER_27_281
*2952 FILLER_27_289
*2953 FILLER_27_297
*2954 FILLER_27_299
*2955 FILLER_27_301
*2956 FILLER_27_305
*2957 FILLER_27_310
*2958 FILLER_27_314
*2959 FILLER_27_316
*2960 FILLER_27_323
*2961 FILLER_27_331
*2962 FILLER_28_3
*2963 FILLER_28_11
*2964 FILLER_28_19
*2965 FILLER_28_36
*2966 FILLER_28_44
*2967 FILLER_28_52
*2968 FILLER_28_60
*2969 FILLER_28_68
*2970 FILLER_28_91
*2971 FILLER_28_99
*2972 FILLER_28_108
*2973 FILLER_28_116
*2974 FILLER_28_124
*2975 FILLER_28_132
*2976 FILLER_28_140
*2977 FILLER_28_148
*2978 FILLER_28_157
*2979 FILLER_28_165
*2980 FILLER_28_173
*2981 FILLER_28_181
*2982 FILLER_28_189
*2983 FILLER_28_197
*2984 FILLER_28_201
*2985 FILLER_28_209
*2986 FILLER_28_218
*2987 FILLER_28_226
*2988 FILLER_28_250
*2989 FILLER_28_258
*2990 FILLER_28_266
*2991 FILLER_28_271
*2992 FILLER_28_275
*2993 FILLER_28_283
*2994 FILLER_28_291
*2995 FILLER_28_299
*2996 FILLER_28_303
*2997 FILLER_28_324
*2998 FILLER_28_328
*2999 FILLER_28_331
*3000 FILLER_29_3
*3001 FILLER_29_11
*3002 FILLER_29_44
*3003 FILLER_29_52
*3004 FILLER_29_81
*3005 FILLER_29_89
*3006 FILLER_29_117
*3007 FILLER_29_119
*3008 FILLER_29_121
*3009 FILLER_29_129
*3010 FILLER_29_133
*3011 FILLER_29_138
*3012 FILLER_29_165
*3013 FILLER_29_173
*3014 FILLER_29_177
*3015 FILLER_29_179
*3016 FILLER_29_181
*3017 FILLER_29_189
*3018 FILLER_29_197
*3019 FILLER_29_205
*3020 FILLER_29_209
*3021 FILLER_29_213
*3022 FILLER_29_221
*3023 FILLER_29_229
*3024 FILLER_29_233
*3025 FILLER_29_248
*3026 FILLER_29_256
*3027 FILLER_29_264
*3028 FILLER_29_268
*3029 FILLER_29_277
*3030 FILLER_29_285
*3031 FILLER_29_293
*3032 FILLER_29_297
*3033 FILLER_29_299
*3034 FILLER_29_301
*3035 FILLER_29_305
*3036 FILLER_29_326
*3037 FILLER_29_334
*3038 FILLER_30_3
*3039 FILLER_30_11
*3040 FILLER_30_15
*3041 FILLER_30_17
*3042 FILLER_30_39
*3043 FILLER_30_47
*3044 FILLER_30_49
*3045 FILLER_30_79
*3046 FILLER_30_87
*3047 FILLER_30_89
*3048 FILLER_30_111
*3049 FILLER_30_119
*3050 FILLER_30_121
*3051 FILLER_30_145
*3052 FILLER_30_149
*3053 FILLER_30_157
*3054 FILLER_30_165
*3055 FILLER_30_173
*3056 FILLER_30_195
*3057 FILLER_30_203
*3058 FILLER_30_231
*3059 FILLER_30_253
*3060 FILLER_30_261
*3061 FILLER_30_265
*3062 FILLER_30_291
*3063 FILLER_30_296
*3064 FILLER_30_298
*3065 FILLER_30_329
*3066 FILLER_30_331
*3067 FILLER_31_3
*3068 FILLER_31_11
*3069 FILLER_31_19
*3070 FILLER_31_30
*3071 FILLER_31_38
*3072 FILLER_31_46
*3073 FILLER_31_59
*3074 FILLER_31_70
*3075 FILLER_31_78
*3076 FILLER_31_86
*3077 FILLER_31_94
*3078 FILLER_31_102
*3079 FILLER_31_110
*3080 FILLER_31_118
*3081 FILLER_31_121
*3082 FILLER_31_129
*3083 FILLER_31_136
*3084 FILLER_31_144
*3085 FILLER_31_152
*3086 FILLER_31_160
*3087 FILLER_31_168
*3088 FILLER_31_204
*3089 FILLER_31_212
*3090 FILLER_31_218
*3091 FILLER_31_226
*3092 FILLER_31_234
*3093 FILLER_31_238
*3094 FILLER_31_247
*3095 FILLER_31_255
*3096 FILLER_31_263
*3097 FILLER_31_294
*3098 FILLER_31_298
*3099 FILLER_31_301
*3100 FILLER_31_308
*3101 FILLER_31_316
*3102 FILLER_31_321
*3103 FILLER_31_329
*3104 FILLER_31_333
*3105 FILLER_32_3
*3106 FILLER_32_11
*3107 FILLER_32_22
*3108 FILLER_32_51
*3109 FILLER_32_62
*3110 FILLER_32_70
*3111 FILLER_32_78
*3112 FILLER_32_86
*3113 FILLER_32_91
*3114 FILLER_32_95
*3115 FILLER_32_103
*3116 FILLER_32_111
*3117 FILLER_32_119
*3118 FILLER_32_127
*3119 FILLER_32_135
*3120 FILLER_32_139
*3121 FILLER_32_148
*3122 FILLER_32_154
*3123 FILLER_32_162
*3124 FILLER_32_170
*3125 FILLER_32_187
*3126 FILLER_32_192
*3127 FILLER_32_200
*3128 FILLER_32_204
*3129 FILLER_32_206
*3130 FILLER_32_231
*3131 FILLER_32_239
*3132 FILLER_32_247
*3133 FILLER_32_255
*3134 FILLER_32_263
*3135 FILLER_32_267
*3136 FILLER_32_269
*3137 FILLER_32_271
*3138 FILLER_32_275
*3139 FILLER_32_279
*3140 FILLER_32_287
*3141 FILLER_32_295
*3142 FILLER_32_303
*3143 FILLER_32_311
*3144 FILLER_32_319
*3145 FILLER_32_327
*3146 FILLER_32_329
*3147 FILLER_32_331
*3148 FILLER_33_3
*3149 FILLER_33_11
*3150 FILLER_33_15
*3151 FILLER_33_36
*3152 FILLER_33_44
*3153 FILLER_33_52
*3154 FILLER_33_61
*3155 FILLER_33_69
*3156 FILLER_33_77
*3157 FILLER_33_81
*3158 FILLER_33_85
*3159 FILLER_33_113
*3160 FILLER_33_117
*3161 FILLER_33_119
*3162 FILLER_33_121
*3163 FILLER_33_157
*3164 FILLER_33_165
*3165 FILLER_33_173
*3166 FILLER_33_181
*3167 FILLER_33_204
*3168 FILLER_33_212
*3169 FILLER_33_219
*3170 FILLER_33_227
*3171 FILLER_33_235
*3172 FILLER_33_239
*3173 FILLER_33_241
*3174 FILLER_33_248
*3175 FILLER_33_256
*3176 FILLER_33_258
*3177 FILLER_33_275
*3178 FILLER_33_283
*3179 FILLER_33_291
*3180 FILLER_33_299
*3181 FILLER_33_301
*3182 FILLER_33_321
*3183 FILLER_33_329
*3184 FILLER_33_333
*3185 FILLER_34_3
*3186 FILLER_34_11
*3187 FILLER_34_19
*3188 FILLER_34_23
*3189 FILLER_34_31
*3190 FILLER_34_38
*3191 FILLER_34_46
*3192 FILLER_34_54
*3193 FILLER_34_62
*3194 FILLER_34_85
*3195 FILLER_34_89
*3196 FILLER_34_94
*3197 FILLER_34_99
*3198 FILLER_34_121
*3199 FILLER_34_129
*3200 FILLER_34_151
*3201 FILLER_34_159
*3202 FILLER_34_167
*3203 FILLER_34_175
*3204 FILLER_34_183
*3205 FILLER_34_191
*3206 FILLER_34_199
*3207 FILLER_34_207
*3208 FILLER_34_209
*3209 FILLER_34_211
*3210 FILLER_34_219
*3211 FILLER_34_227
*3212 FILLER_34_229
*3213 FILLER_34_238
*3214 FILLER_34_269
*3215 FILLER_34_271
*3216 FILLER_34_279
*3217 FILLER_34_287
*3218 FILLER_34_295
*3219 FILLER_34_326
*3220 FILLER_34_331
*3221 FILLER_35_3
*3222 FILLER_35_11
*3223 FILLER_35_19
*3224 FILLER_35_21
*3225 FILLER_35_26
*3226 FILLER_35_51
*3227 FILLER_35_59
*3228 FILLER_35_66
*3229 FILLER_35_71
*3230 FILLER_35_79
*3231 FILLER_35_87
*3232 FILLER_35_91
*3233 FILLER_35_100
*3234 FILLER_35_108
*3235 FILLER_35_116
*3236 FILLER_35_121
*3237 FILLER_35_132
*3238 FILLER_35_145
*3239 FILLER_35_153
*3240 FILLER_35_161
*3241 FILLER_35_169
*3242 FILLER_35_173
*3243 FILLER_35_178
*3244 FILLER_35_181
*3245 FILLER_35_189
*3246 FILLER_35_197
*3247 FILLER_35_205
*3248 FILLER_35_209
*3249 FILLER_35_221
*3250 FILLER_35_248
*3251 FILLER_35_256
*3252 FILLER_35_267
*3253 FILLER_35_269
*3254 FILLER_35_281
*3255 FILLER_35_285
*3256 FILLER_35_289
*3257 FILLER_35_293
*3258 FILLER_35_298
*3259 FILLER_35_320
*3260 FILLER_35_328
*3261 FILLER_35_332
*3262 FILLER_35_334
*3263 FILLER_36_3
*3264 FILLER_36_11
*3265 FILLER_36_13
*3266 FILLER_36_55
*3267 FILLER_36_63
*3268 FILLER_36_67
*3269 FILLER_36_76
*3270 FILLER_36_84
*3271 FILLER_36_86
*3272 FILLER_36_91
*3273 FILLER_36_96
*3274 FILLER_36_98
*3275 FILLER_36_102
*3276 FILLER_36_110
*3277 FILLER_36_131
*3278 FILLER_36_135
*3279 FILLER_36_137
*3280 FILLER_36_143
*3281 FILLER_36_147
*3282 FILLER_36_149
*3283 FILLER_36_151
*3284 FILLER_36_159
*3285 FILLER_36_183
*3286 FILLER_36_204
*3287 FILLER_36_218
*3288 FILLER_36_238
*3289 FILLER_36_247
*3290 FILLER_36_255
*3291 FILLER_36_263
*3292 FILLER_36_267
*3293 FILLER_36_269
*3294 FILLER_36_271
*3295 FILLER_36_279
*3296 FILLER_36_285
*3297 FILLER_36_306
*3298 FILLER_36_320
*3299 FILLER_36_328
*3300 FILLER_36_331
*3301 FILLER_37_3
*3302 FILLER_37_11
*3303 FILLER_37_19
*3304 FILLER_37_50
*3305 FILLER_37_54
*3306 FILLER_37_56
*3307 FILLER_37_61
*3308 FILLER_37_65
*3309 FILLER_37_67
*3310 FILLER_37_71
*3311 FILLER_37_73
*3312 FILLER_37_124
*3313 FILLER_37_132
*3314 FILLER_37_140
*3315 FILLER_37_178
*3316 FILLER_37_184
*3317 FILLER_37_192
*3318 FILLER_37_212
*3319 FILLER_37_216
*3320 FILLER_37_222
*3321 FILLER_37_230
*3322 FILLER_37_238
*3323 FILLER_37_241
*3324 FILLER_37_264
*3325 FILLER_37_277
*3326 FILLER_37_285
*3327 FILLER_37_296
*3328 FILLER_37_301
*3329 FILLER_37_322
*3330 FILLER_37_330
*3331 FILLER_37_334
*3332 FILLER_38_3
*3333 FILLER_38_11
*3334 FILLER_38_19
*3335 FILLER_38_26
*3336 FILLER_38_31
*3337 FILLER_38_39
*3338 FILLER_38_47
*3339 FILLER_38_55
*3340 FILLER_38_59
*3341 FILLER_38_61
*3342 FILLER_38_69
*3343 FILLER_38_77
*3344 FILLER_38_85
*3345 FILLER_38_89
*3346 FILLER_38_91
*3347 FILLER_38_99
*3348 FILLER_38_107
*3349 FILLER_38_115
*3350 FILLER_38_119
*3351 FILLER_38_121
*3352 FILLER_38_129
*3353 FILLER_38_137
*3354 FILLER_38_145
*3355 FILLER_38_149
*3356 FILLER_38_151
*3357 FILLER_38_159
*3358 FILLER_38_166
*3359 FILLER_38_168
*3360 FILLER_38_173
*3361 FILLER_38_177
*3362 FILLER_38_179
*3363 FILLER_38_181
*3364 FILLER_38_189
*3365 FILLER_38_197
*3366 FILLER_38_205
*3367 FILLER_38_209
*3368 FILLER_38_211
*3369 FILLER_38_219
*3370 FILLER_38_227
*3371 FILLER_38_235
*3372 FILLER_38_239
*3373 FILLER_38_241
*3374 FILLER_38_249
*3375 FILLER_38_253
*3376 FILLER_38_258
*3377 FILLER_38_266
*3378 FILLER_38_271
*3379 FILLER_38_279
*3380 FILLER_38_287
*3381 FILLER_38_295
*3382 FILLER_38_299
*3383 FILLER_38_301
*3384 FILLER_38_317
*3385 FILLER_38_325
*3386 FILLER_38_329
*3387 FILLER_38_331

*PORTS
clk I
ena I
rst_n I
ui_in[0] I
ui_in[1] I
ui_in[2] I
ui_in[3] I
ui_in[4] I
ui_in[5] I
ui_in[6] I
ui_in[7] I
uio_in[0] I
uio_in[1] I
uio_in[2] I
uio_in[3] I
uio_in[4] I
uio_in[5] I
uio_in[6] I
uio_in[7] I
uio_oe[0] O
uio_oe[1] O
uio_oe[2] O
uio_oe[3] O
uio_oe[4] O
uio_oe[5] O
uio_oe[6] O
uio_oe[7] O
uio_out[0] O
uio_out[1] O
uio_out[2] O
uio_out[3] O
uio_out[4] O
uio_out[5] O
uio_out[6] O
uio_out[7] O
uo_out[0] O
uo_out[1] O
uo_out[2] O
uo_out[3] O
uo_out[4] O
uo_out[5] O
uo_out[6] O
uo_out[7] O

*D_NET *1 0.000398211
*CONN
*I *1496:D I *D sky130_fd_sc_hd__dfxtp_1
*I *827:Y O *D sky130_fd_sc_hd__o32ai_1
*CAP
1 *1496:D 0.000199106
2 *827:Y 0.000199106
3 *1496:D *827:A2 0
4 *1496:D *870:A 0
5 *1496:D *870:B 0
6 *1496:D *974:A 0
7 *1496:D *976:A 0
8 *1496:D *176:24 0
*RES
1 *827:Y *1496:D 31.9616 
*END

*D_NET *2 0.000369882
*CONN
*I *1497:D I *D sky130_fd_sc_hd__dfxtp_1
*I *866:Y O *D sky130_fd_sc_hd__o21ai_0
*CAP
1 *1497:D 0.000184941
2 *866:Y 0.000184941
3 *1497:D *866:B1 0
4 *1497:D *203:5 0
5 *1497:D *203:18 0
*RES
1 *866:Y *1497:D 31.5688 
*END

*D_NET *3 0.000251885
*CONN
*I *1498:D I *D sky130_fd_sc_hd__dfxtp_1
*I *875:Y O *D sky130_fd_sc_hd__o21ai_0
*CAP
1 *1498:D 0.000125942
2 *875:Y 0.000125942
3 *1498:D *981:A1 0
4 *1498:D *597:12 0
5 *1498:D *779:15 0
*RES
1 *875:Y *1498:D 30.3366 
*END

*D_NET *4 0.000156152
*CONN
*I *1499:D I *D sky130_fd_sc_hd__dfxtp_1
*I *873:Y O *D sky130_fd_sc_hd__o21ai_0
*CAP
1 *1499:D 7.80759e-05
2 *873:Y 7.80759e-05
3 *1499:D *598:9 0
*RES
1 *873:Y *1499:D 20.2295 
*END

*D_NET *5 0.000289202
*CONN
*I *1501:D I *D sky130_fd_sc_hd__dfstp_2
*I *830:Y O *D sky130_fd_sc_hd__o21ai_0
*CAP
1 *1501:D 0.000144601
2 *830:Y 0.000144601
3 *1501:D *1501:SET_B 0
4 *1501:D *771:32 0
5 *1501:D *771:40 0
*RES
1 *830:Y *1501:D 21.6179 
*END

*D_NET *6 0.000255009
*CONN
*I *1502:D I *D sky130_fd_sc_hd__dfrtp_1
*I *820:X O *D sky130_fd_sc_hd__a32o_1
*CAP
1 *1502:D 0.000127504
2 *820:X 0.000127504
3 *1502:D *814:A 0
4 *1502:D *814:SLEEP 0
5 *1502:D *815:A_N 0
6 *1502:D *815:B 0
*RES
1 *820:X *1502:D 30.3857 
*END

*D_NET *7 0.000169317
*CONN
*I *1503:D I *D sky130_fd_sc_hd__dfrtp_1
*I *819:X O *D sky130_fd_sc_hd__a221o_1
*CAP
1 *1503:D 8.46584e-05
2 *819:X 8.46584e-05
3 *1503:D *1333:A2 0
4 *1503:D *704:6 0
5 *1503:D *704:11 0
6 *1503:D *769:59 0
*RES
1 *819:X *1503:D 29.475 
*END

*D_NET *8 0.000201564
*CONN
*I *1504:D I *D sky130_fd_sc_hd__dfrtp_1
*I *811:X O *D sky130_fd_sc_hd__a21o_1
*CAP
1 *1504:D 0.000100782
2 *811:X 0.000100782
3 *1504:D *577:12 0
4 *1504:D *752:87 0
*RES
1 *811:X *1504:D 29.7786 
*END

*D_NET *9 0.000248132
*CONN
*I *1371:D I *D sky130_fd_sc_hd__dfstp_2
*I *848:Y O *D sky130_fd_sc_hd__nand2_1
*CAP
1 *1371:D 0.000124066
2 *848:Y 0.000124066
3 *1371:D *848:A 0
4 *1371:D *1371:CLK 0
5 *1371:D *709:7 0
*RES
1 *848:Y *1371:D 21.1893 
*END

*D_NET *10 0.000201564
*CONN
*I *1372:D I *D sky130_fd_sc_hd__dfrtp_1
*I *853:Y O *D sky130_fd_sc_hd__o21ai_0
*CAP
1 *1372:D 0.000100782
2 *853:Y 0.000100782
3 *1372:D *853:A2 0
4 *1372:D *579:12 0
5 *1372:D *764:64 0
*RES
1 *853:Y *1372:D 29.7786 
*END

*D_NET *11 0.00111146
*CONN
*I *1373:D I *D sky130_fd_sc_hd__dfrtp_1
*I *855:Y O *D sky130_fd_sc_hd__nor2_1
*CAP
1 *1373:D 0.000555729
2 *855:Y 0.000555729
3 *1373:D *710:7 0
4 *1373:D *711:10 0
5 *1373:D *764:57 0
6 *1373:D *764:61 0
*RES
1 *855:Y *1373:D 30.2607 
*END

*D_NET *12 0.000366208
*CONN
*I *1374:D I *D sky130_fd_sc_hd__dfrtp_1
*I *869:Y O *D sky130_fd_sc_hd__nand2_1
*CAP
1 *1374:D 0.000183104
2 *869:Y 0.000183104
3 *1374:D *867:A 0
4 *1374:D *869:A 0
5 *1374:D *877:C 0
*RES
1 *869:Y *1374:D 22.4214 
*END

*D_NET *13 0.000494218
*CONN
*I *1375:D I *D sky130_fd_sc_hd__dfrtp_1
*I *958:Y O *D sky130_fd_sc_hd__nand3_1
*CAP
1 *1375:D 0.000247109
2 *958:Y 0.000247109
3 *1375:D *842:A 0
4 *1375:D *958:B 0
5 *1375:D *958:C 0
6 *1375:D *1376:CLK 0
7 *1375:D *1376:D 0
*RES
1 *958:Y *1375:D 33.0286 
*END

*D_NET *14 0.00043372
*CONN
*I *1376:D I *D sky130_fd_sc_hd__dfrtp_1
*I *960:Y O *D sky130_fd_sc_hd__a21oi_1
*CAP
1 *1376:D 0.00021686
2 *960:Y 0.00021686
3 *1376:D *842:A 0
4 *1376:D *958:B 0
5 *1376:D *960:A1 0
6 *1376:D *964:B1 0
7 *1376:D *288:53 0
8 *1376:D *713:16 0
9 *1375:D *1376:D 0
*RES
1 *960:Y *1376:D 32.3321 
*END

*D_NET *15 0.000235339
*CONN
*I *1377:D I *D sky130_fd_sc_hd__dfrtp_1
*I *962:Y O *D sky130_fd_sc_hd__a21oi_1
*CAP
1 *1377:D 0.000117669
2 *962:Y 0.000117669
3 *1377:D *181:25 0
4 *1377:D *717:8 0
*RES
1 *962:Y *1377:D 30.1893 
*END

*D_NET *16 0.00107589
*CONN
*I *1378:D I *D sky130_fd_sc_hd__dfrtp_1
*I *964:Y O *D sky130_fd_sc_hd__a21oi_1
*CAP
1 *1378:D 0.000537944
2 *964:Y 0.000537944
3 *1378:D *960:A2 0
4 *1378:D *964:A1 0
5 *1378:D *964:A2 0
6 *1378:D *1376:RESET_B 0
7 *1378:D *1378:CLK 0
8 *1378:D *1378:RESET_B 0
9 *1378:D *181:6 0
10 *1378:D *713:13 0
11 *1378:D *714:8 0
*RES
1 *964:Y *1378:D 39.2429 
*END

*D_NET *17 0.000315643
*CONN
*I *1379:D I *D sky130_fd_sc_hd__dfrtp_1
*I *967:Y O *D sky130_fd_sc_hd__a21oi_1
*CAP
1 *1379:D 0.000157822
2 *967:Y 0.000157822
3 *1379:D *843:A1 0
4 *1379:D *967:A2 0
5 *1379:D *1379:RESET_B 0
6 *1379:D *192:9 0
7 *1379:D *288:19 0
*RES
1 *967:Y *1379:D 31.1 
*END

*D_NET *18 0.000644842
*CONN
*I *1380:D I *D sky130_fd_sc_hd__dfrtp_1
*I *969:Y O *D sky130_fd_sc_hd__a21oi_1
*CAP
1 *1380:D 0.000322421
2 *969:Y 0.000322421
3 *1380:D *1381:RESET_B 0
4 *1380:D *188:15 0
5 *1380:D *288:11 0
*RES
1 *969:Y *1380:D 34.5107 
*END

*D_NET *19 0.000249843
*CONN
*I *1381:D I *D sky130_fd_sc_hd__dfrtp_1
*I *971:Y O *D sky130_fd_sc_hd__a31oi_1
*CAP
1 *1381:D 0.000124921
2 *971:Y 0.000124921
3 *1381:D *971:B1 0
*RES
1 *971:Y *1381:D 21.2071 
*END

*D_NET *20 0.000786871
*CONN
*I *1382:D I *D sky130_fd_sc_hd__dfrtp_1
*I *973:Y O *D sky130_fd_sc_hd__nor2_1
*CAP
1 *1382:D 0.000393435
2 *973:Y 0.000393435
3 *1382:D *973:A 0
4 *1382:D *973:B 0
5 *1382:D *1381:CLK 0
6 *1382:D *720:11 0
7 *1382:D *720:20 0
8 *1382:D *720:40 0
9 *1382:D *764:72 0
*RES
1 *973:Y *1382:D 36.2786 
*END

*D_NET *21 0.00120429
*CONN
*I *1383:D I *D sky130_fd_sc_hd__dfxtp_1
*I *975:X O *D sky130_fd_sc_hd__a22o_1
*CAP
1 *1383:D 0.000602147
2 *975:X 0.000602147
3 *1383:D *822:SLEEP 0
4 *1383:D *904:A 0
5 *1383:D *777:53 0
*RES
1 *975:X *1383:D 31.2295 
*END

*D_NET *22 0.000652699
*CONN
*I *1384:D I *D sky130_fd_sc_hd__dfxtp_1
*I *979:Y O *D sky130_fd_sc_hd__a21oi_1
*CAP
1 *1384:D 0.00032635
2 *979:Y 0.00032635
3 *1384:D uio_out[4] 0
4 *1384:D uio_out[5] 0
5 *1384:D *977:A 0
6 *1384:D *1384:CLK 0
7 *1384:D *278:11 0
8 *1384:D *721:19 0
*RES
1 *979:Y *1384:D 34.8902 
*END

*D_NET *23 0.000156152
*CONN
*I *1385:D I *D sky130_fd_sc_hd__dfxtp_1
*I *985:Y O *D sky130_fd_sc_hd__o21ai_0
*CAP
1 *1385:D 7.80759e-05
2 *985:Y 7.80759e-05
3 *1385:D *985:B1 0
4 *1385:D *210:60 0
5 *1385:D *599:11 0
*RES
1 *985:Y *1385:D 20.2295 
*END

*D_NET *24 0.000195511
*CONN
*I *1386:D I *D sky130_fd_sc_hd__dfxtp_1
*I *989:Y O *D sky130_fd_sc_hd__nand2_1
*CAP
1 *1386:D 9.77553e-05
2 *989:Y 9.77553e-05
3 *1386:D *989:A 0
4 *1386:D *600:5 0
5 *1386:D *600:13 0
*RES
1 *989:Y *1386:D 20.6402 
*END

*D_NET *25 0.000277989
*CONN
*I *1387:D I *D sky130_fd_sc_hd__dfxtp_1
*I *993:Y O *D sky130_fd_sc_hd__o31ai_1
*CAP
1 *1387:D 0.000138994
2 *993:Y 0.000138994
3 *1387:D *993:A1 0
4 *1387:D *993:A2 0
5 *1387:D *993:A3 0
6 *1387:D *311:10 0
*RES
1 *993:Y *1387:D 30.658 
*END

*D_NET *26 0.000763549
*CONN
*I *1388:D I *D sky130_fd_sc_hd__dfxtp_1
*I *996:Y O *D sky130_fd_sc_hd__nand2_1
*CAP
1 *1388:D 0.000381775
2 *996:Y 0.000381775
3 *1388:D *994:A 0
4 *1388:D *602:10 0
*RES
1 *996:Y *1388:D 35.6759 
*END

*D_NET *27 0.00112155
*CONN
*I *1389:D I *D sky130_fd_sc_hd__dfxtp_1
*I *998:X O *D sky130_fd_sc_hd__a22o_1
*CAP
1 *1389:D 0.000560774
2 *998:X 0.000560774
3 *1389:D *822:A 0
4 *1389:D *975:A1 0
5 *1389:D *975:A2 0
6 *1389:D *977:B 0
7 *1389:D *1496:CLK 0
8 *1389:D *176:12 0
9 *1389:D *592:80 0
10 *1389:D *723:40 0
11 *1389:D *748:6 0
*RES
1 *998:X *1389:D 39.658 
*END

*D_NET *28 0.000156152
*CONN
*I *1390:D I *D sky130_fd_sc_hd__dfxtp_1
*I *999:X O *D sky130_fd_sc_hd__and2_0
*CAP
1 *1390:D 7.80759e-05
2 *999:X 7.80759e-05
3 *1390:D *1390:CLK 0
4 *1390:D *721:38 0
*RES
1 *999:X *1390:D 20.2295 
*END

*D_NET *29 0.000235418
*CONN
*I *1391:D I *D sky130_fd_sc_hd__dfstp_2
*I *1004:Y O *D sky130_fd_sc_hd__nand2_1
*CAP
1 *1391:D 0.000117709
2 *1004:Y 0.000117709
3 *1391:D *1324:A 0
4 *1391:D *1391:SET_B 0
5 *1391:D *219:20 0
*RES
1 *1004:Y *1391:D 30.1893 
*END

*D_NET *30 0.000315565
*CONN
*I *1392:D I *D sky130_fd_sc_hd__dfrtp_1
*I *1048:Y O *D sky130_fd_sc_hd__a21oi_1
*CAP
1 *1392:D 0.000157782
2 *1048:Y 0.000157782
3 *1392:D *784:A 0
4 *1392:D *1019:B 0
5 *1392:D *1036:B 0
6 *1392:D *642:19 0
*RES
1 *1048:Y *1392:D 31.1 
*END

*D_NET *31 0.000314017
*CONN
*I *1393:D I *D sky130_fd_sc_hd__dfrtp_1
*I *1050:Y O *D sky130_fd_sc_hd__o31ai_1
*CAP
1 *1393:D 0.000157009
2 *1050:Y 0.000157009
3 *1393:D *1049:A 0
4 *1393:D *316:203 0
5 *1393:D *603:434 0
6 *1393:D *774:79 0
*RES
1 *1050:Y *1393:D 31.0107 
*END

*D_NET *32 0.000303027
*CONN
*I *1394:D I *D sky130_fd_sc_hd__dfrtp_1
*I *1053:Y O *D sky130_fd_sc_hd__o21ai_0
*CAP
1 *1394:D 0.000151513
2 *1053:Y 0.000151513
3 *1394:D *1051:A 0
4 *1394:D *1053:A2 0
5 *1394:D *316:225 0
6 *1394:D *360:275 0
*RES
1 *1053:Y *1394:D 30.9929 
*END

*D_NET *33 0.000208676
*CONN
*I *1395:D I *D sky130_fd_sc_hd__dfrtp_1
*I *1056:Y O *D sky130_fd_sc_hd__o21ai_0
*CAP
1 *1395:D 0.000104338
2 *1056:Y 0.000104338
3 *1395:D *1054:A 0
4 *1395:D *316:253 0
5 *1395:D *646:23 0
6 *1395:D *774:90 0
*RES
1 *1056:Y *1395:D 29.8857 
*END

*D_NET *34 0.000477037
*CONN
*I *1396:D I *D sky130_fd_sc_hd__dfrtp_1
*I *1059:Y O *D sky130_fd_sc_hd__o21ai_0
*CAP
1 *1396:D 0.000238518
2 *1059:Y 0.000238518
3 *1396:D *1056:B1 0
4 *1396:D *1059:A2 0
5 *1396:D *1143:A1 0
6 *1396:D *316:265 0
7 *1396:D *774:90 0
*RES
1 *1059:Y *1396:D 32.6536 
*END

*D_NET *35 0.00028749
*CONN
*I *1397:D I *D sky130_fd_sc_hd__dfrtp_1
*I *1062:Y O *D sky130_fd_sc_hd__o21ai_0
*CAP
1 *1397:D 0.000143745
2 *1062:Y 0.000143745
3 *1397:D *1062:B1 0
4 *1397:D *774:17 0
*RES
1 *1062:Y *1397:D 21.6 
*END

*D_NET *36 0.000314135
*CONN
*I *1398:D I *D sky130_fd_sc_hd__dfrtp_1
*I *1065:Y O *D sky130_fd_sc_hd__o21ai_0
*CAP
1 *1398:D 0.000157068
2 *1065:Y 0.000157068
3 *1398:D *316:235 0
4 *1398:D *649:10 0
5 *1398:D *649:13 0
*RES
1 *1065:Y *1398:D 31.0107 
*END

*D_NET *37 0.000364045
*CONN
*I *1399:D I *D sky130_fd_sc_hd__dfrtp_1
*I *1068:Y O *D sky130_fd_sc_hd__o21ai_0
*CAP
1 *1399:D 0.000182022
2 *1068:Y 0.000182022
3 *1399:D *1066:B 0
4 *1399:D *1071:A2 0
5 *1399:D *1400:CLK 0
6 *1399:D *650:8 0
7 *1399:D *651:11 0
8 *1399:D *773:18 0
*RES
1 *1068:Y *1399:D 31.6714 
*END

*D_NET *38 0.000340877
*CONN
*I *1400:D I *D sky130_fd_sc_hd__dfrtp_1
*I *1071:Y O *D sky130_fd_sc_hd__o21ai_0
*CAP
1 *1400:D 0.000170439
2 *1071:Y 0.000170439
3 *1400:D *1155:A1 0
4 *1400:D *316:425 0
5 *1400:D *603:336 0
*RES
1 *1071:Y *1400:D 31.3143 
*END

*D_NET *39 0.000881681
*CONN
*I *1401:D I *D sky130_fd_sc_hd__dfrtp_1
*I *1074:Y O *D sky130_fd_sc_hd__o21ai_0
*CAP
1 *1401:D 0.00044084
2 *1074:Y 0.00044084
3 *1401:D *1072:A 0
4 *1401:D *1401:CLK 0
5 *1401:D *1401:RESET_B 0
6 *1401:D *621:5 0
7 *1401:D *649:23 0
8 *1401:D *651:21 0
9 *1401:D *773:18 0
*RES
1 *1074:Y *1401:D 46.0464 
*END

*D_NET *40 0.000196059
*CONN
*I *1402:D I *D sky130_fd_sc_hd__dfrtp_1
*I *1077:Y O *D sky130_fd_sc_hd__o21ai_0
*CAP
1 *1402:D 9.80294e-05
2 *1077:Y 9.80294e-05
3 *1402:D *315:481 0
4 *1402:D *623:40 0
5 *1402:D *624:10 0
*RES
1 *1077:Y *1402:D 29.7786 
*END

*D_NET *41 0.000406978
*CONN
*I *1403:D I *D sky130_fd_sc_hd__dfrtp_1
*I *1080:Y O *D sky130_fd_sc_hd__o21ai_0
*CAP
1 *1403:D 0.000203489
2 *1080:Y 0.000203489
3 *1403:D *360:167 0
4 *1403:D *360:190 0
5 *1403:D *772:18 0
6 *1403:D *772:20 0
*RES
1 *1080:Y *1403:D 32.0286 
*END

*D_NET *42 0.000540688
*CONN
*I *1404:D I *D sky130_fd_sc_hd__dfrtp_1
*I *1083:Y O *D sky130_fd_sc_hd__o21ai_0
*CAP
1 *1404:D 0.000270344
2 *1083:Y 0.000270344
3 *1404:D *1083:A1 0
4 *1404:D *1083:A2 0
5 *1404:D *316:400 0
*RES
1 *1083:Y *1404:D 33.5464 
*END

*D_NET *43 0.000287393
*CONN
*I *1405:D I *D sky130_fd_sc_hd__dfrtp_1
*I *1086:Y O *D sky130_fd_sc_hd__o21ai_0
*CAP
1 *1405:D 0.000143697
2 *1086:Y 0.000143697
3 *1405:D *1084:A 0
4 *1405:D *1085:A 0
5 *1405:D *1086:A1 0
6 *1405:D *1086:A2 0
7 *1405:D *315:502 0
8 *1405:D *316:414 0
*RES
1 *1086:Y *1405:D 30.7071 
*END

*D_NET *44 0.000255832
*CONN
*I *1406:D I *D sky130_fd_sc_hd__dfrtp_1
*I *1089:Y O *D sky130_fd_sc_hd__o21ai_0
*CAP
1 *1406:D 0.000127916
2 *1089:Y 0.000127916
3 *1406:D *1406:CLK 0
4 *1406:D *626:12 0
*RES
1 *1089:Y *1406:D 21.3321 
*END

*D_NET *45 0.00025354
*CONN
*I *1407:D I *D sky130_fd_sc_hd__dfrtp_1
*I *1092:Y O *D sky130_fd_sc_hd__o21ai_0
*CAP
1 *1407:D 0.00012677
2 *1092:Y 0.00012677
3 *1407:D *1407:CLK 0
4 *1407:D *360:62 0
5 *1407:D *627:8 0
6 *1407:D *692:23 0
*RES
1 *1092:Y *1407:D 30.2964 
*END

*D_NET *46 0.000525054
*CONN
*I *1408:D I *D sky130_fd_sc_hd__dfrtp_1
*I *1095:Y O *D sky130_fd_sc_hd__o21ai_0
*CAP
1 *1408:D 0.000262527
2 *1095:Y 0.000262527
3 *1408:D *1020:A 0
4 *1408:D *316:148 0
5 *1408:D *695:23 0
*RES
1 *1095:Y *1408:D 33.2607 
*END

*D_NET *47 0.000577233
*CONN
*I *1409:D I *D sky130_fd_sc_hd__dfrtp_1
*I *1098:Y O *D sky130_fd_sc_hd__o21ai_0
*CAP
1 *1409:D 0.000288616
2 *1098:Y 0.000288616
3 *1409:D *1409:CLK 0
4 *1409:D *1409:RESET_B 0
5 *1409:D *629:8 0
*RES
1 *1098:Y *1409:D 33.7071 
*END

*D_NET *48 0.000742987
*CONN
*I *1410:D I *D sky130_fd_sc_hd__dfrtp_1
*I *1101:Y O *D sky130_fd_sc_hd__o21ai_0
*CAP
1 *1410:D 0.000371494
2 *1101:Y 0.000371494
3 *1410:D *1101:A1 0
4 *1410:D *1409:CLK 0
5 *1410:D *696:30 0
6 *1410:D *766:20 0
7 *1410:D *766:24 0
*RES
1 *1101:Y *1410:D 35.6 
*END

*D_NET *49 0.000556277
*CONN
*I *1411:D I *D sky130_fd_sc_hd__dfrtp_1
*I *1104:Y O *D sky130_fd_sc_hd__o21ai_0
*CAP
1 *1411:D 0.000278139
2 *1104:Y 0.000278139
3 *1411:D *1160:B 0
4 *1411:D *1161:A 0
5 *1411:D *1430:RESET_B 0
6 *1411:D *316:393 0
7 *1411:D *696:30 0
8 *1411:D *766:40 0
*RES
1 *1104:Y *1411:D 33.475 
*END

*D_NET *50 0.000852204
*CONN
*I *1412:D I *D sky130_fd_sc_hd__dfrtp_1
*I *1107:Y O *D sky130_fd_sc_hd__o21ai_0
*CAP
1 *1412:D 0.000426102
2 *1107:Y 0.000426102
3 *1412:D *1107:A1 0
4 *1412:D *1107:A2 0
5 *1412:D *1412:RESET_B 0
6 *1412:D *1431:RESET_B 0
7 *1412:D *603:234 0
8 *1412:D *633:8 0
*RES
1 *1107:Y *1412:D 27.4929 
*END

*D_NET *51 0.000169414
*CONN
*I *1413:D I *D sky130_fd_sc_hd__dfrtp_1
*I *1110:Y O *D sky130_fd_sc_hd__o21ai_0
*CAP
1 *1413:D 8.4707e-05
2 *1110:Y 8.4707e-05
3 *1413:D *1413:CLK 0
*RES
1 *1110:Y *1413:D 20.3679 
*END

*D_NET *52 0.000280282
*CONN
*I *1414:D I *D sky130_fd_sc_hd__dfrtp_1
*I *1113:Y O *D sky130_fd_sc_hd__o21ai_0
*CAP
1 *1414:D 0.000140141
2 *1113:Y 0.000140141
3 *1414:D *315:591 0
4 *1414:D *316:148 0
5 *1414:D *316:164 0
6 *1414:D *773:12 0
7 *1414:D *773:14 0
*RES
1 *1113:Y *1414:D 30.6 
*END

*D_NET *53 0.000261822
*CONN
*I *1415:D I *D sky130_fd_sc_hd__dfrtp_1
*I *1116:Y O *D sky130_fd_sc_hd__o21ai_0
*CAP
1 *1415:D 0.000130911
2 *1116:Y 0.000130911
3 *1415:D *1415:CLK 0
4 *1415:D *360:53 0
*RES
1 *1116:Y *1415:D 21.3321 
*END

*D_NET *54 0.000169414
*CONN
*I *1416:D I *D sky130_fd_sc_hd__dfrtp_1
*I *1119:Y O *D sky130_fd_sc_hd__o21ai_0
*CAP
1 *1416:D 8.4707e-05
2 *1119:Y 8.4707e-05
3 *1416:D *360:337 0
*RES
1 *1119:Y *1416:D 20.3679 
*END

*D_NET *55 0.000198205
*CONN
*I *1417:D I *D sky130_fd_sc_hd__dfrtp_1
*I *1122:Y O *D sky130_fd_sc_hd__nand2_1
*CAP
1 *1417:D 9.91025e-05
2 *1122:Y 9.91025e-05
3 *1417:D *1122:A 0
4 *1417:D *1224:A 0
*RES
1 *1122:Y *1417:D 29.85 
*END

*D_NET *56 0.000169414
*CONN
*I *1418:D I *D sky130_fd_sc_hd__dfrtp_1
*I *1125:Y O *D sky130_fd_sc_hd__o21ai_0
*CAP
1 *1418:D 8.4707e-05
2 *1125:Y 8.4707e-05
3 *1418:D *1125:A2 0
4 *1418:D *1418:CLK 0
5 *1418:D *315:861 0
*RES
1 *1125:Y *1418:D 20.3679 
*END

*D_NET *57 0.000235418
*CONN
*I *1419:D I *D sky130_fd_sc_hd__dfrtp_1
*I *1128:Y O *D sky130_fd_sc_hd__o21ai_0
*CAP
1 *1419:D 0.000117709
2 *1128:Y 0.000117709
3 *1419:D *1453:D 0
4 *1419:D *360:364 0
5 *1419:D *603:745 0
*RES
1 *1128:Y *1419:D 30.1893 
*END

*D_NET *58 0.000720437
*CONN
*I *1420:D I *D sky130_fd_sc_hd__dfrtp_1
*I *1131:Y O *D sky130_fd_sc_hd__nand2_1
*CAP
1 *1420:D 0.000360219
2 *1131:Y 0.000360219
3 *1420:D *1131:A 0
4 *1420:D *1131:B 0
5 *1420:D *1216:B 0
6 *1420:D *1219:B 0
*RES
1 *1131:Y *1420:D 26.1179 
*END

*D_NET *59 0.000838513
*CONN
*I *1421:D I *D sky130_fd_sc_hd__dfrtp_1
*I *1134:Y O *D sky130_fd_sc_hd__nand2_1
*CAP
1 *1421:D 0.000419257
2 *1134:Y 0.000419257
3 *1421:D *1134:A 0
*RES
1 *1134:Y *1421:D 27.35 
*END

*D_NET *60 0.00075962
*CONN
*I *1422:D I *D sky130_fd_sc_hd__dfrtp_1
*I *1137:Y O *D sky130_fd_sc_hd__nand2_1
*CAP
1 *1422:D 0.00037981
2 *1137:Y 0.00037981
3 *1422:D *1136:B 0
*RES
1 *1137:Y *1422:D 35.6357 
*END

*D_NET *61 0.000852745
*CONN
*I *1423:D I *D sky130_fd_sc_hd__dfrtp_1
*I *1140:Y O *D sky130_fd_sc_hd__nand2_1
*CAP
1 *1423:D 0.000426372
2 *1140:Y 0.000426372
*RES
1 *1140:Y *1423:D 36.5821 
*END

*D_NET *62 0.000806855
*CONN
*I *1424:D I *D sky130_fd_sc_hd__dfrtp_1
*I *1143:Y O *D sky130_fd_sc_hd__o21ai_0
*CAP
1 *1424:D 0.000403428
2 *1143:Y 0.000403428
3 *1424:D *1141:A 0
4 *1424:D *1143:A1 0
*RES
1 *1143:Y *1424:D 27.0821 
*END

*D_NET *63 0.000680981
*CONN
*I *1425:D I *D sky130_fd_sc_hd__dfrtp_1
*I *1146:Y O *D sky130_fd_sc_hd__nand2_1
*CAP
1 *1425:D 0.000340491
2 *1146:Y 0.000340491
3 *1425:D *1146:B 0
4 *1425:D *1426:D 0
5 *1425:D *1426:RESET_B 0
6 *1425:D *693:10 0
*RES
1 *1146:Y *1425:D 34.8143 
*END

*D_NET *64 0.000580046
*CONN
*I *1426:D I *D sky130_fd_sc_hd__dfrtp_1
*I *1149:Y O *D sky130_fd_sc_hd__nand2_1
*CAP
1 *1426:D 0.000290023
2 *1149:Y 0.000290023
3 *1426:D *1149:B 0
4 *1426:D *1425:CLK 0
5 *1426:D *692:8 0
6 *1425:D *1426:D 0
*RES
1 *1149:Y *1426:D 33.9571 
*END

*D_NET *65 0.000214762
*CONN
*I *1427:D I *D sky130_fd_sc_hd__dfrtp_1
*I *1152:Y O *D sky130_fd_sc_hd__nand2_1
*CAP
1 *1427:D 0.000107381
2 *1152:Y 0.000107381
3 *1427:D *774:36 0
4 *1427:D *774:42 0
*RES
1 *1152:Y *1427:D 20.7786 
*END

*D_NET *66 0.000484187
*CONN
*I *1428:D I *D sky130_fd_sc_hd__dfrtp_1
*I *1155:Y O *D sky130_fd_sc_hd__o21ai_0
*CAP
1 *1428:D 0.000242094
2 *1155:Y 0.000242094
3 *1428:D *1155:A1 0
4 *1428:D *1155:A2 0
5 *1428:D *1155:B1 0
*RES
1 *1155:Y *1428:D 32.7607 
*END

*D_NET *67 0.000409916
*CONN
*I *1429:D I *D sky130_fd_sc_hd__dfrtp_1
*I *1158:Y O *D sky130_fd_sc_hd__nand2_1
*CAP
1 *1429:D 0.000204958
2 *1158:Y 0.000204958
3 *1429:D *1082:A 0
4 *1429:D *1158:B 0
5 *1429:D *624:10 0
6 *1429:D *624:38 0
*RES
1 *1158:Y *1429:D 32.2071 
*END

*D_NET *68 0.000248034
*CONN
*I *1430:D I *D sky130_fd_sc_hd__dfrtp_1
*I *1161:Y O *D sky130_fd_sc_hd__nand2_1
*CAP
1 *1430:D 0.000124017
2 *1161:Y 0.000124017
3 *1430:D *1430:CLK 0
4 *1430:D *1430:RESET_B 0
5 *1430:D *360:150 0
*RES
1 *1161:Y *1430:D 30.2964 
*END

*D_NET *69 0.000537874
*CONN
*I *1431:D I *D sky130_fd_sc_hd__dfrtp_1
*I *1164:Y O *D sky130_fd_sc_hd__o21ai_0
*CAP
1 *1431:D 0.000268937
2 *1164:Y 0.000268937
3 *1431:D *1164:B1 0
4 *1431:D *702:8 0
*RES
1 *1164:Y *1431:D 33.2964 
*END

*D_NET *70 0.000603772
*CONN
*I *1432:D I *D sky130_fd_sc_hd__dfrtp_1
*I *1167:Y O *D sky130_fd_sc_hd__o21ai_0
*CAP
1 *1432:D 0.000301886
2 *1167:Y 0.000301886
3 *1432:D *1167:A2 0
4 *1432:D *316:592 0
5 *1432:D *764:8 0
6 *1432:D *764:10 0
*RES
1 *1167:Y *1432:D 34.0821 
*END

*D_NET *71 0.000392853
*CONN
*I *1433:D I *D sky130_fd_sc_hd__dfrtp_1
*I *1170:Y O *D sky130_fd_sc_hd__o21ai_0
*CAP
1 *1433:D 0.000196426
2 *1170:Y 0.000196426
3 *1433:D *1170:B1 0
4 *1433:D *360:480 0
5 *1433:D *603:842 0
*RES
1 *1170:Y *1433:D 31.8321 
*END

*D_NET *72 0.000274737
*CONN
*I *1434:D I *D sky130_fd_sc_hd__dfrtp_1
*I *1173:Y O *D sky130_fd_sc_hd__nand2_1
*CAP
1 *1434:D 0.000137368
2 *1173:Y 0.000137368
3 *1434:D *315:285 0
4 *1434:D *360:509 0
5 *1434:D *763:30 0
*RES
1 *1173:Y *1434:D 30.6 
*END

*D_NET *73 0.000117979
*CONN
*I *1435:D I *D sky130_fd_sc_hd__dfrtp_1
*I *1176:Y O *D sky130_fd_sc_hd__nand2_1
*CAP
1 *1435:D 5.89896e-05
2 *1176:Y 5.89896e-05
3 *1435:D *1176:A 0
4 *1435:D *1176:B 0
5 *1435:D *656:25 0
*RES
1 *1176:Y *1435:D 28.9393 
*END

*D_NET *74 0.000169317
*CONN
*I *1436:D I *D sky130_fd_sc_hd__dfrtp_1
*I *1179:Y O *D sky130_fd_sc_hd__o21ai_0
*CAP
1 *1436:D 8.46584e-05
2 *1179:Y 8.46584e-05
3 *1436:D *1468:CLK 0
4 *1436:D *579:12 0
*RES
1 *1179:Y *1436:D 29.475 
*END

*D_NET *75 0.000248034
*CONN
*I *1437:D I *D sky130_fd_sc_hd__dfrtp_1
*I *1182:Y O *D sky130_fd_sc_hd__nand2_1
*CAP
1 *1437:D 0.000124017
2 *1182:Y 0.000124017
3 *1437:D *1269:B 0
4 *1437:D *579:12 0
*RES
1 *1182:Y *1437:D 30.2964 
*END

*D_NET *76 0.000523546
*CONN
*I *1438:D I *D sky130_fd_sc_hd__dfrtp_1
*I *1185:Y O *D sky130_fd_sc_hd__o21ai_0
*CAP
1 *1438:D 0.000261773
2 *1185:Y 0.000261773
3 *1438:D *315:288 0
4 *1438:D *360:528 0
5 *1438:D *653:38 0
*RES
1 *1185:Y *1438:D 33.1714 
*END

*D_NET *77 0.000462274
*CONN
*I *1439:D I *D sky130_fd_sc_hd__dfrtp_1
*I *1188:Y O *D sky130_fd_sc_hd__o21ai_0
*CAP
1 *1439:D 0.000231137
2 *1188:Y 0.000231137
3 *1439:D *1188:A2 0
4 *1439:D *1440:CLK 0
5 *1439:D *1466:RESET_B 0
*RES
1 *1188:Y *1439:D 32.475 
*END

*D_NET *78 0.000235378
*CONN
*I *1440:D I *D sky130_fd_sc_hd__dfrtp_1
*I *1191:Y O *D sky130_fd_sc_hd__o21ai_0
*CAP
1 *1440:D 0.000117689
2 *1191:Y 0.000117689
3 *1440:D *1191:A2 0
4 *1440:D *1191:B1 0
5 *1440:D *1469:D 0
6 *1440:D *315:194 0
7 *1440:D *316:65 0
*RES
1 *1191:Y *1440:D 30.1893 
*END

*D_NET *79 0.000274776
*CONN
*I *1441:D I *D sky130_fd_sc_hd__dfrtp_1
*I *1194:Y O *D sky130_fd_sc_hd__nand2_1
*CAP
1 *1441:D 0.000137388
2 *1194:Y 0.000137388
3 *1441:D *315:199 0
4 *1441:D *316:84 0
5 *1441:D *767:10 0
*RES
1 *1194:Y *1441:D 30.6 
*END

*D_NET *80 0.000235418
*CONN
*I *1442:D I *D sky130_fd_sc_hd__dfrtp_1
*I *1197:Y O *D sky130_fd_sc_hd__nand2_1
*CAP
1 *1442:D 0.000117709
2 *1197:Y 0.000117709
3 *1442:D *1197:A 0
4 *1442:D *1197:B 0
5 *1442:D *316:84 0
*RES
1 *1197:Y *1442:D 30.1893 
*END

*D_NET *81 0.000208773
*CONN
*I *1443:D I *D sky130_fd_sc_hd__dfrtp_1
*I *1200:Y O *D sky130_fd_sc_hd__nand2_1
*CAP
1 *1443:D 0.000104386
2 *1200:Y 0.000104386
3 *1443:D *1443:CLK 0
4 *1443:D *1443:RESET_B 0
*RES
1 *1200:Y *1443:D 20.7786 
*END

*D_NET *82 0.000522908
*CONN
*I *1444:D I *D sky130_fd_sc_hd__dfrtp_1
*I *1203:Y O *D sky130_fd_sc_hd__o21ai_0
*CAP
1 *1444:D 0.000261454
2 *1203:Y 0.000261454
3 *1444:D *1201:B 0
4 *1444:D *603:182 0
5 *1444:D *613:24 0
6 *1444:D *698:36 0
*RES
1 *1203:Y *1444:D 33.1893 
*END

*D_NET *83 0.000274776
*CONN
*I *1445:D I *D sky130_fd_sc_hd__dfrtp_1
*I *1206:Y O *D sky130_fd_sc_hd__nand2_1
*CAP
1 *1445:D 0.000137388
2 *1206:Y 0.000137388
3 *1445:D *940:A1 0
4 *1445:D *1043:SLEEP 0
5 *1445:D *1044:D 0
6 *1445:D *1206:B 0
7 *1445:D *699:25 0
*RES
1 *1206:Y *1445:D 30.6 
*END

*D_NET *84 0.000326752
*CONN
*I *1446:D I *D sky130_fd_sc_hd__dfrtp_1
*I *1209:Y O *D sky130_fd_sc_hd__nand2_1
*CAP
1 *1446:D 0.000163376
2 *1209:Y 0.000163376
3 *1446:D *1039:A 0
4 *1446:D *1207:B 0
5 *1446:D *1208:B 0
6 *1446:D *617:7 0
7 *1446:D *765:135 0
*RES
1 *1209:Y *1446:D 31.1179 
*END

*D_NET *85 0.000208773
*CONN
*I *1447:D I *D sky130_fd_sc_hd__dfrtp_1
*I *1212:Y O *D sky130_fd_sc_hd__o21ai_0
*CAP
1 *1447:D 0.000104386
2 *1212:Y 0.000104386
3 *1447:D *775:15 0
4 *1447:D *775:37 0
*RES
1 *1212:Y *1447:D 20.7786 
*END

*D_NET *86 0.000287197
*CONN
*I *1448:D I *D sky130_fd_sc_hd__dfrtp_1
*I *1215:Y O *D sky130_fd_sc_hd__o21ai_0
*CAP
1 *1448:D 0.000143598
2 *1215:Y 0.000143598
3 *1448:D *1448:CLK 0
4 *1448:D *619:7 0
*RES
1 *1215:Y *1448:D 30.7071 
*END

*D_NET *87 0.000484187
*CONN
*I *1449:D I *D sky130_fd_sc_hd__dfrtp_1
*I *1218:Y O *D sky130_fd_sc_hd__o21ai_0
*CAP
1 *1449:D 0.000242094
2 *1218:Y 0.000242094
3 *1449:D *1217:B 0
4 *1449:D *1218:A1 0
5 *1449:D *360:358 0
6 *1449:D *603:657 0
7 *1449:D *603:659 0
*RES
1 *1218:Y *1449:D 32.7607 
*END

*D_NET *88 0.000169317
*CONN
*I *1450:D I *D sky130_fd_sc_hd__dfrtp_1
*I *1221:Y O *D sky130_fd_sc_hd__nand2_1
*CAP
1 *1450:D 8.46584e-05
2 *1221:Y 8.46584e-05
3 *1450:D *1420:CLK 0
4 *1450:D *316:1038 0
*RES
1 *1221:Y *1450:D 29.475 
*END

*D_NET *89 0.000326752
*CONN
*I *1451:D I *D sky130_fd_sc_hd__dfrtp_1
*I *1224:Y O *D sky130_fd_sc_hd__nand2_1
*CAP
1 *1451:D 0.000163376
2 *1224:Y 0.000163376
3 *1451:D *1223:B 0
4 *1451:D *1224:A 0
5 *1451:D *1224:B 0
6 *1451:D *315:735 0
7 *1451:D *639:18 0
*RES
1 *1224:Y *1451:D 31.1179 
*END

*D_NET *90 0.000605123
*CONN
*I *1452:D I *D sky130_fd_sc_hd__dfrtp_1
*I *1227:Y O *D sky130_fd_sc_hd__o21ai_0
*CAP
1 *1452:D 0.000302561
2 *1227:Y 0.000302561
3 *1452:D *1227:A2 0
4 *1452:D *1227:B1 0
5 *1452:D *315:873 0
6 *1452:D *360:358 0
7 *1452:D *360:364 0
8 *1452:D *603:655 0
*RES
1 *1227:Y *1452:D 34.1714 
*END

*D_NET *91 0.000680981
*CONN
*I *1453:D I *D sky130_fd_sc_hd__dfrtp_1
*I *1230:Y O *D sky130_fd_sc_hd__nand2_1
*CAP
1 *1453:D 0.000340491
2 *1230:Y 0.000340491
3 *1453:D *1126:B 0
4 *1453:D *1128:B1 0
5 *1453:D *1230:B 0
6 *1453:D *1242:A1 0
7 *1453:D *316:1069 0
8 *1453:D *603:745 0
9 *1453:D *603:756 0
10 *1419:D *1453:D 0
*RES
1 *1230:Y *1453:D 34.8143 
*END

*D_NET *92 0.000274776
*CONN
*I *1454:D I *D sky130_fd_sc_hd__dfrtp_1
*I *1233:Y O *D sky130_fd_sc_hd__o21ai_0
*CAP
1 *1454:D 0.000137388
2 *1233:Y 0.000137388
3 *1454:D *663:26 0
4 *1454:D *778:17 0
5 *1454:D *779:8 0
*RES
1 *1233:Y *1454:D 30.6 
*END

*D_NET *93 0.000169317
*CONN
*I *1455:D I *D sky130_fd_sc_hd__dfrtp_1
*I *1236:Y O *D sky130_fd_sc_hd__o21ai_0
*CAP
1 *1455:D 8.46584e-05
2 *1236:Y 8.46584e-05
3 *1455:D *1234:B 0
4 *1455:D *316:940 0
5 *1455:D *603:616 0
*RES
1 *1236:Y *1455:D 29.475 
*END

*D_NET *94 0.000117979
*CONN
*I *1456:D I *D sky130_fd_sc_hd__dfrtp_1
*I *1239:Y O *D sky130_fd_sc_hd__nand2_1
*CAP
1 *1456:D 5.89896e-05
2 *1239:Y 5.89896e-05
3 *1456:D *1239:A 0
4 *1456:D *1239:B 0
*RES
1 *1239:Y *1456:D 28.9393 
*END

*D_NET *95 0.000169414
*CONN
*I *1457:D I *D sky130_fd_sc_hd__dfrtp_1
*I *1242:Y O *D sky130_fd_sc_hd__o21ai_0
*CAP
1 *1457:D 8.4707e-05
2 *1242:Y 8.4707e-05
3 *1457:D *1242:A1 0
4 *1457:D *1243:B 0
*RES
1 *1242:Y *1457:D 20.3679 
*END

*D_NET *96 0.000742987
*CONN
*I *1458:D I *D sky130_fd_sc_hd__dfrtp_1
*I *1245:Y O *D sky130_fd_sc_hd__nand2_1
*CAP
1 *1458:D 0.000371494
2 *1245:Y 0.000371494
3 *1458:D *1240:A 0
4 *1458:D *1245:B 0
5 *1458:D *1457:RESET_B 0
6 *1458:D *603:756 0
7 *1458:D *674:14 0
*RES
1 *1245:Y *1458:D 35.6 
*END

*D_NET *97 0.000444828
*CONN
*I *1459:D I *D sky130_fd_sc_hd__dfrtp_1
*I *1248:Y O *D sky130_fd_sc_hd__o21ai_0
*CAP
1 *1459:D 0.000222414
2 *1248:Y 0.000222414
3 *1459:D *1251:A 0
4 *1459:D *1459:RESET_B 0
5 *1459:D *316:920 0
*RES
1 *1248:Y *1459:D 32.35 
*END

*D_NET *98 0.000235418
*CONN
*I *1460:D I *D sky130_fd_sc_hd__dfrtp_1
*I *1251:Y O *D sky130_fd_sc_hd__nand2_1
*CAP
1 *1460:D 0.000117709
2 *1251:Y 0.000117709
3 *1460:D *1250:A 0
4 *1460:D *1251:B 0
5 *1460:D *1459:RESET_B 0
6 *1460:D *316:908 0
*RES
1 *1251:Y *1460:D 30.1893 
*END

*D_NET *99 0.000169414
*CONN
*I *1461:D I *D sky130_fd_sc_hd__dfrtp_1
*I *1254:Y O *D sky130_fd_sc_hd__o21ai_0
*CAP
1 *1461:D 8.4707e-05
2 *1254:Y 8.4707e-05
3 *1461:D *1461:CLK 0
4 *1461:D *680:7 0
*RES
1 *1254:Y *1461:D 20.3679 
*END

*D_NET *100 0.000235418
*CONN
*I *1462:D I *D sky130_fd_sc_hd__dfrtp_1
*I *1257:Y O *D sky130_fd_sc_hd__nand2_1
*CAP
1 *1462:D 0.000117709
2 *1257:Y 0.000117709
3 *1462:D *1295:A 0
4 *1462:D *681:15 0
*RES
1 *1257:Y *1462:D 30.1893 
*END

*D_NET *101 0.00019598
*CONN
*I *1463:D I *D sky130_fd_sc_hd__dfrtp_1
*I *1260:Y O *D sky130_fd_sc_hd__o21ai_0
*CAP
1 *1463:D 9.799e-05
2 *1260:Y 9.799e-05
3 *1463:D *1260:A2 0
4 *1463:D *1261:A 0
5 *1463:D *768:12 0
*RES
1 *1260:Y *1463:D 29.7786 
*END

*D_NET *102 0.000196059
*CONN
*I *1464:D I *D sky130_fd_sc_hd__dfrtp_1
*I *1263:Y O *D sky130_fd_sc_hd__nand2_1
*CAP
1 *1464:D 9.80294e-05
2 *1263:Y 9.80294e-05
3 *1464:D *1262:A 0
4 *1464:D *579:12 0
*RES
1 *1263:Y *1464:D 29.7786 
*END

*D_NET *103 0.000562865
*CONN
*I *1465:D I *D sky130_fd_sc_hd__dfrtp_1
*I *1266:Y O *D sky130_fd_sc_hd__o21ai_0
*CAP
1 *1465:D 0.000281433
2 *1266:Y 0.000281433
3 *1465:D *1265:A 0
4 *1465:D *1266:A1 0
5 *1465:D *592:200 0
*RES
1 *1266:Y *1465:D 33.5821 
*END

*D_NET *104 0.000699631
*CONN
*I *1466:D I *D sky130_fd_sc_hd__dfrtp_1
*I *1269:Y O *D sky130_fd_sc_hd__nand2_1
*CAP
1 *1466:D 0.000349816
2 *1269:Y 0.000349816
3 *1466:D *1271:A 0
4 *1466:D *316:659 0
5 *1466:D *316:688 0
6 *1466:D *579:12 0
7 *1466:D *763:30 0
*RES
1 *1269:Y *1466:D 35.2786 
*END

*D_NET *105 0.000117901
*CONN
*I *1467:D I *D sky130_fd_sc_hd__dfrtp_1
*I *1272:Y O *D sky130_fd_sc_hd__o21ai_0
*CAP
1 *1467:D 5.89503e-05
2 *1272:Y 5.89503e-05
3 *1467:D *1272:B1 0
4 *1467:D *579:12 0
*RES
1 *1272:Y *1467:D 28.9393 
*END

*D_NET *106 0.000144721
*CONN
*I *1468:D I *D sky130_fd_sc_hd__dfrtp_1
*I *1275:Y O *D sky130_fd_sc_hd__nand2_1
*CAP
1 *1468:D 7.23606e-05
2 *1275:Y 7.23606e-05
3 *1468:D *1179:A2 0
4 *1468:D *1275:A 0
*RES
1 *1275:Y *1468:D 29.2429 
*END

*D_NET *107 0.000552548
*CONN
*I *1469:D I *D sky130_fd_sc_hd__dfrtp_1
*I *1278:Y O *D sky130_fd_sc_hd__o21ai_0
*CAP
1 *1469:D 0.000276274
2 *1278:Y 0.000276274
3 *1469:D *1192:A 0
4 *1469:D *1278:A2 0
5 *1469:D *315:194 0
6 *1469:D *360:452 0
7 *1469:D *603:807 0
8 *1440:D *1469:D 0
*RES
1 *1278:Y *1469:D 33.6714 
*END

*D_NET *108 0.000353494
*CONN
*I *1470:D I *D sky130_fd_sc_hd__dfrtp_1
*I *1281:Y O *D sky130_fd_sc_hd__nand2_1
*CAP
1 *1470:D 0.000176747
2 *1281:Y 0.000176747
3 *1470:D *1281:A 0
4 *1470:D *660:27 0
5 *1470:D *765:14 0
*RES
1 *1281:Y *1470:D 31.4214 
*END

*D_NET *109 0.000419798
*CONN
*I *1471:D I *D sky130_fd_sc_hd__dfrtp_1
*I *1284:Y O *D sky130_fd_sc_hd__o21ai_0
*CAP
1 *1471:D 0.000209899
2 *1284:Y 0.000209899
3 *1471:D *1282:B 0
4 *1471:D *1287:A 0
5 *1471:D *1471:RESET_B 0
6 *1471:D *316:34 0
7 *1471:D *360:441 0
*RES
1 *1284:Y *1471:D 32.0643 
*END

*D_NET *110 0.000287354
*CONN
*I *1472:D I *D sky130_fd_sc_hd__dfrtp_1
*I *1287:Y O *D sky130_fd_sc_hd__nand2_1
*CAP
1 *1472:D 0.000143677
2 *1287:Y 0.000143677
3 *1472:D *1287:B 0
4 *1472:D *316:733 0
5 *1472:D *593:11 0
*RES
1 *1287:Y *1472:D 30.7071 
*END

*D_NET *111 0.000489693
*CONN
*I *1473:D I *D sky130_fd_sc_hd__dfrtp_1
*I *1290:Y O *D sky130_fd_sc_hd__o21ai_0
*CAP
1 *1473:D 0.000244846
2 *1290:Y 0.000244846
3 *1473:D *1289:B 0
4 *1473:D *1290:A1 0
5 *1473:D *1511:RESET_B 0
6 *1473:D *315:169 0
7 *1473:D *592:173 0
8 *1473:D *603:938 0
9 *1473:D *603:947 0
*RES
1 *1290:Y *1473:D 32.7607 
*END

*D_NET *112 0.000353494
*CONN
*I *1474:D I *D sky130_fd_sc_hd__dfrtp_1
*I *1293:Y O *D sky130_fd_sc_hd__nand2_1
*CAP
1 *1474:D 0.000176747
2 *1293:Y 0.000176747
3 *1474:D *1258:B 0
4 *1474:D *1259:A 0
5 *1474:D *592:173 0
*RES
1 *1293:Y *1474:D 31.4214 
*END

*D_NET *113 0.00032826
*CONN
*I *1475:D I *D sky130_fd_sc_hd__dfrtp_1
*I *1296:Y O *D sky130_fd_sc_hd__o21ai_0
*CAP
1 *1475:D 0.00016413
2 *1296:Y 0.00016413
3 *1475:D *1295:A 0
4 *1475:D *1296:A1 0
5 *1475:D *1832:A 0
6 *1475:D *603:114 0
7 *1475:D *603:116 0
8 *1475:D *770:10 0
*RES
1 *1296:Y *1475:D 31.2071 
*END

*D_NET *114 0.000288901
*CONN
*I *1476:D I *D sky130_fd_sc_hd__dfrtp_1
*I *1299:Y O *D sky130_fd_sc_hd__nand2_1
*CAP
1 *1476:D 0.000144451
2 *1299:Y 0.000144451
3 *1476:D *1299:B 0
4 *1476:D *1461:CLK 0
5 *1476:D *1478:CLK 0
6 *1476:D *315:87 0
*RES
1 *1299:Y *1476:D 30.7964 
*END

*D_NET *115 0.000235418
*CONN
*I *1477:D I *D sky130_fd_sc_hd__dfrtp_1
*I *1302:Y O *D sky130_fd_sc_hd__o21ai_0
*CAP
1 *1477:D 0.000117709
2 *1302:Y 0.000117709
3 *1477:D *1305:B 0
4 *1477:D *1478:RESET_B 0
5 *1477:D *316:20 0
*RES
1 *1302:Y *1477:D 30.1893 
*END

*D_NET *116 0.000816933
*CONN
*I *1478:D I *D sky130_fd_sc_hd__dfrtp_1
*I *1305:Y O *D sky130_fd_sc_hd__nand2_1
*CAP
1 *1478:D 0.000408466
2 *1305:Y 0.000408466
3 *1478:D *1302:A2 0
4 *1478:D *1303:A 0
5 *1478:D *1305:A 0
6 *1478:D *1305:B 0
7 *1478:D *1478:RESET_B 0
8 *1478:D *315:12 0
9 *1478:D *315:14 0
10 *1478:D *316:20 0
11 *1478:D *360:428 0
*RES
1 *1305:Y *1478:D 36.5107 
*END

*D_NET *117 0.000235339
*CONN
*I *1479:D I *D sky130_fd_sc_hd__dfrtp_1
*I *1308:Y O *D sky130_fd_sc_hd__o21ai_0
*CAP
1 *1479:D 0.000117669
2 *1308:Y 0.000117669
3 *1479:D *669:35 0
4 *1479:D *679:34 0
*RES
1 *1308:Y *1479:D 30.1893 
*END

*D_NET *118 0.000422611
*CONN
*I *1480:D I *D sky130_fd_sc_hd__dfrtp_1
*I *1311:Y O *D sky130_fd_sc_hd__nand2_1
*CAP
1 *1480:D 0.000211306
2 *1311:Y 0.000211306
3 *1480:D *913:B2 0
4 *1480:D *941:B2 0
5 *1480:D *1008:C 0
6 *1480:D *1009:D 0
7 *1480:D *1480:RESET_B 0
8 *1480:D *219:20 0
*RES
1 *1311:Y *1480:D 32.3143 
*END

*D_NET *119 0.000275341
*CONN
*I *1481:D I *D sky130_fd_sc_hd__dfrtp_1
*I *1314:Y O *D sky130_fd_sc_hd__o21ai_0
*CAP
1 *1481:D 0.00013767
2 *1314:Y 0.00013767
3 *1481:D *936:B2 0
4 *1481:D *1312:B 0
5 *1481:D *242:20 0
6 *1481:D *673:8 0
*RES
1 *1314:Y *1481:D 30.6179 
*END

*D_NET *120 0.000208676
*CONN
*I *1482:D I *D sky130_fd_sc_hd__dfrtp_1
*I *1317:Y O *D sky130_fd_sc_hd__nand2_1
*CAP
1 *1482:D 0.000104338
2 *1317:Y 0.000104338
3 *1482:D *1315:B 0
4 *1482:D *316:908 0
5 *1482:D *777:22 0
*RES
1 *1317:Y *1482:D 29.8857 
*END

*D_NET *121 0.000248034
*CONN
*I *1483:D I *D sky130_fd_sc_hd__dfrtp_1
*I *1320:Y O *D sky130_fd_sc_hd__o21ai_0
*CAP
1 *1483:D 0.000124017
2 *1320:Y 0.000124017
3 *1483:D *1320:A2 0
4 *1483:D *315:774 0
5 *1483:D *620:27 0
6 *1483:D *777:37 0
*RES
1 *1320:Y *1483:D 30.2964 
*END

*D_NET *122 0.000169317
*CONN
*I *1484:D I *D sky130_fd_sc_hd__dfrtp_1
*I *1323:Y O *D sky130_fd_sc_hd__nand2_1
*CAP
1 *1484:D 8.46584e-05
2 *1323:Y 8.46584e-05
3 *1484:D *1323:A 0
4 *1484:D *1325:A 0
5 *1484:D *219:20 0
6 *1484:D *776:57 0
*RES
1 *1323:Y *1484:D 29.475 
*END

*D_NET *123 0.000198205
*CONN
*I *1485:D I *D sky130_fd_sc_hd__dfrtp_1
*I *1326:Y O *D sky130_fd_sc_hd__o21ai_0
*CAP
1 *1485:D 9.91025e-05
2 *1326:Y 9.91025e-05
3 *1485:D *1326:A1 0
4 *1485:D *1485:CLK 0
5 *1485:D *219:20 0
*RES
1 *1326:Y *1485:D 29.85 
*END

*D_NET *124 0.000564413
*CONN
*I *1486:D I *D sky130_fd_sc_hd__dfrtp_1
*I *1329:Y O *D sky130_fd_sc_hd__nand2_1
*CAP
1 *1486:D 0.000282206
2 *1329:Y 0.000282206
3 *1486:D *751:17 0
4 *1486:D *771:20 0
*RES
1 *1329:Y *1486:D 33.6714 
*END

*D_NET *125 0.000742948
*CONN
*I *1487:D I *D sky130_fd_sc_hd__dfrtp_1
*I *1332:Y O *D sky130_fd_sc_hd__o21ai_0
*CAP
1 *1487:D 0.000371474
2 *1332:Y 0.000371474
3 *1487:D *1000:B 0
4 *1487:D *1331:B 0
5 *1487:D *1508:D 0
6 *1487:D *138:8 0
7 *1487:D *138:19 0
8 *1487:D *603:14 0
9 *1487:D *771:20 0
*RES
1 *1332:Y *1487:D 35.6 
*END

*D_NET *126 0.000302043
*CONN
*I *1488:D I *D sky130_fd_sc_hd__dfrtp_1
*I *1343:Y O *D sky130_fd_sc_hd__a21oi_1
*CAP
1 *1488:D 0.000151022
2 *1343:Y 0.000151022
3 *1488:D *556:12 0
4 *1488:D *769:54 0
5 *1488:D *769:59 0
*RES
1 *1343:Y *1488:D 31.0464 
*END

*D_NET *127 0.000502837
*CONN
*I *1489:D I *D sky130_fd_sc_hd__dfrtp_1
*I *1346:Y O *D sky130_fd_sc_hd__nor3_1
*CAP
1 *1489:D 0.000251419
2 *1346:Y 0.000251419
3 *1489:D *1347:A3 0
4 *1489:D *1349:C 0
5 *1489:D *168:45 0
6 *1489:D *580:10 0
7 *1489:D *584:23 0
8 *1489:D *752:12 0
*RES
1 *1346:Y *1489:D 33.225 
*END

*D_NET *128 0.000422611
*CONN
*I *1490:D I *D sky130_fd_sc_hd__dfrtp_1
*I *1349:Y O *D sky130_fd_sc_hd__nor3_1
*CAP
1 *1490:D 0.000211306
2 *1349:Y 0.000211306
3 *1490:D *1347:B1 0
4 *1490:D *1349:C 0
5 *1490:D *581:10 0
6 *1490:D *582:11 0
*RES
1 *1349:Y *1490:D 32.3143 
*END

*D_NET *129 0.000144721
*CONN
*I *1491:D I *D sky130_fd_sc_hd__dfrtp_1
*I *1352:Y O *D sky130_fd_sc_hd__nor3_1
*CAP
1 *1491:D 7.23606e-05
2 *1352:Y 7.23606e-05
3 *1491:D *1352:B 0
4 *1491:D *559:26 0
*RES
1 *1352:Y *1491:D 29.2429 
*END

*D_NET *130 0.000627014
*CONN
*I *1492:D I *D sky130_fd_sc_hd__dfrtp_1
*I *1354:Y O *D sky130_fd_sc_hd__a21oi_1
*CAP
1 *1492:D 0.000313507
2 *1354:Y 0.000313507
3 *1492:D *1353:A1 0
4 *1492:D *1354:A2 0
5 *1492:D *1354:B1 0
6 *1492:D *1492:RESET_B 0
7 *1492:D *1506:CLK 0
8 *1492:D *584:16 0
9 *1492:D *592:163 0
10 *1492:D *592:165 0
*RES
1 *1354:Y *1492:D 34.5643 
*END

*D_NET *131 0.000247396
*CONN
*I *1493:D I *D sky130_fd_sc_hd__dfrtp_1
*I *1358:Y O *D sky130_fd_sc_hd__nor3_1
*CAP
1 *1493:D 0.000123698
2 *1358:Y 0.000123698
3 *1493:D *1358:C 0
4 *1493:D *1493:CLK 0
*RES
1 *1358:Y *1493:D 30.3143 
*END

*D_NET *132 0.000383252
*CONN
*I *1494:D I *D sky130_fd_sc_hd__dfrtp_1
*I *1360:Y O *D sky130_fd_sc_hd__a21oi_1
*CAP
1 *1494:D 0.000191626
2 *1360:Y 0.000191626
3 *1494:D *1361:A1 0
4 *1494:D *1494:CLK 0
5 *1494:D *1495:D 0
6 *1494:D *568:18 0
7 *1494:D *586:8 0
8 *1494:D *587:8 0
9 *1494:D *587:27 0
*RES
1 *1360:Y *1494:D 31.9036 
*END

*D_NET *133 0.000609805
*CONN
*I *1495:D I *D sky130_fd_sc_hd__dfrtp_1
*I *1363:Y O *D sky130_fd_sc_hd__a21oi_1
*CAP
1 *1495:D 0.000304902
2 *1363:Y 0.000304902
3 *1495:D *1363:B1 0
4 *1495:D *586:8 0
5 *1494:D *1495:D 0
*RES
1 *1363:Y *1495:D 34.4393 
*END

*D_NET *134 0.000868966
*CONN
*I *1500:D I *D sky130_fd_sc_hd__dfrtp_1
*I *1365:X O *D sky130_fd_sc_hd__a32o_1
*CAP
1 *1500:D 0.000434483
2 *1365:X 0.000434483
3 *1500:D uio_oe[0] 0
4 *1500:D uio_oe[1] 0
5 *1500:D *1365:A1 0
6 *1500:D *1365:A3 0
7 *1500:D *1500:CLK 0
8 *1500:D *1506:RESET_B 0
9 *1500:D *592:121 0
10 *1500:D *592:132 0
*RES
1 *1365:X *1500:D 37.0464 
*END

*D_NET *135 0.00047157
*CONN
*I *1506:D I *D sky130_fd_sc_hd__dfrtp_1
*I *1368:X O *D sky130_fd_sc_hd__a22o_1
*CAP
1 *1506:D 0.000235785
2 *1368:X 0.000235785
3 *1506:D uio_oe[2] 0
4 *1506:D *1368:B2 0
5 *1506:D *1506:CLK 0
*RES
1 *1368:X *1506:D 32.6536 
*END

*D_NET *136 0.000533576
*CONN
*I *1508:D I *D sky130_fd_sc_hd__dfrtp_1
*I *1369:X O *D sky130_fd_sc_hd__a21o_1
*CAP
1 *1508:D 0.000266788
2 *1369:X 0.000266788
3 *1508:D *1000:B 0
4 *1508:D *1001:A 0
5 *1508:D *138:8 0
6 *1508:D *746:23 0
7 *1487:D *1508:D 0
*RES
1 *1369:X *1508:D 33.4393 
*END

*D_NET *137 0.000432211
*CONN
*I *1509:D I *D sky130_fd_sc_hd__dfrtp_1
*I *1370:X O *D sky130_fd_sc_hd__or3_1
*CAP
1 *1509:D 0.000216106
2 *1370:X 0.000216106
3 *1509:D *1370:A 0
4 *1509:D *1370:C 0
5 *1509:D *1509:RESET_B 0
6 *1509:D *751:17 0
*RES
1 *1370:X *1509:D 32.2429 
*END

*D_NET *138 0.00570747
*CONN
*I *1001:A I *D sky130_fd_sc_hd__lpflow_inputiso1p_1
*I *1000:A I *D sky130_fd_sc_hd__nor2_1
*I *820:A1 I *D sky130_fd_sc_hd__a32o_1
*I *819:B2 I *D sky130_fd_sc_hd__a221o_1
*I *816:B1 I *D sky130_fd_sc_hd__a21o_1
*I *780:Y O *D sky130_fd_sc_hd__clkinv_1
*CAP
1 *1001:A 0.000106396
2 *1000:A 0
3 *820:A1 0.000156547
4 *819:B2 6.20329e-06
5 *816:B1 1.21715e-05
6 *780:Y 2.41714e-05
7 *138:29 0.000394913
8 *138:19 0.00238111
9 *138:8 0.00231608
10 *138:7 0.000309876
11 *816:B1 *1342:A1 0
12 *820:A1 *820:A2 0
13 *820:A1 *820:B1 0
14 *820:A1 *820:B2 0
15 *820:A1 *769:59 0
16 *1001:A *1000:B 0
17 *1001:A *1390:CLK 0
18 *1001:A *746:23 0
19 *138:8 *1390:CLK 0
20 *138:8 *771:23 0
21 *138:19 *801:A 0
22 *138:19 *1342:B1 0
23 *138:19 *703:9 0
24 *138:19 *703:14 0
25 *138:19 *752:83 0
26 *138:29 *820:B1 0
27 *138:29 *1342:A1 0
28 *138:29 *1348:A2 0
29 *138:29 *167:11 0
30 *138:29 *168:15 0
31 *138:29 *170:10 0
32 *138:29 *556:12 0
33 *1487:D *138:8 0
34 *1487:D *138:19 0
35 *1508:D *1001:A 0
36 *1508:D *138:8 0
*RES
1 *780:Y *138:7 14.3357 
2 *138:7 *138:8 4.07143 
3 *138:8 *138:19 15.0708 
4 *138:19 *816:B1 14.0768 
5 *138:19 *138:29 5.36607 
6 *138:29 *819:B2 13.9295 
7 *138:29 *820:A1 17.2286 
8 *138:8 *1000:A 13.8 
9 *138:7 *1001:A 16.1929 
*END

*D_NET *139 0.000857675
*CONN
*I *1365:A2 I *D sky130_fd_sc_hd__a32o_1
*I *1336:A1 I *D sky130_fd_sc_hd__o22a_1
*I *781:Y O *D sky130_fd_sc_hd__clkinv_1
*CAP
1 *1365:A2 0.000249156
2 *1336:A1 0.000179681
3 *781:Y 0
4 *139:4 0.000428838
5 *1336:A1 *828:B 0
6 *1336:A1 *1336:B2 0
7 *1336:A1 *558:7 0
8 *1365:A2 *828:B 0
9 *1365:A2 *830:B1 0
10 *1365:A2 *1364:A 0
11 *1365:A2 *1365:A1 0
12 *1365:A2 *1365:B1 0
*RES
1 *781:Y *139:4 9.3 
2 *139:4 *1336:A1 13.05 
3 *139:4 *1365:A2 23.6571 
*END

*D_NET *140 0.000735271
*CONN
*I *1348:D1 I *D sky130_fd_sc_hd__a2111oi_0
*I *1342:A1 I *D sky130_fd_sc_hd__a22oi_1
*I *782:Y O *D sky130_fd_sc_hd__clkinv_1
*CAP
1 *1348:D1 1.62569e-05
2 *1342:A1 0.000327207
3 *782:Y 2.41714e-05
4 *140:5 0.000367636
5 *1342:A1 *1343:B1 0
6 *1342:A1 *1348:A1 0
7 *1342:A1 *1348:A2 0
8 *1342:A1 *1348:B1 0
9 *1342:A1 *1348:C1 0
10 *1342:A1 *167:11 0
11 *1342:A1 *168:31 0
12 *1342:A1 *564:16 0
13 *140:5 *1348:C1 0
14 *816:B1 *1342:A1 0
15 *138:29 *1342:A1 0
*RES
1 *782:Y *140:5 9.83571 
2 *140:5 *1342:A1 25.5857 
3 *140:5 *1348:D1 9.83571 
*END

*D_NET *141 0.00183783
*CONN
*I *1359:A1 I *D sky130_fd_sc_hd__a21o_1
*I *1361:A1 I *D sky130_fd_sc_hd__o21ai_0
*I *799:A2 I *D sky130_fd_sc_hd__a32oi_1
*I *1362:B I *D sky130_fd_sc_hd__or3_1
*I *783:Y O *D sky130_fd_sc_hd__clkinv_1
*CAP
1 *1359:A1 0
2 *1361:A1 0.000244824
3 *799:A2 0.000441545
4 *1362:B 0.000125165
5 *783:Y 4.53482e-05
6 *141:26 0.000306857
7 *141:7 0.00056671
8 *141:5 0.000107381
9 *799:A2 *796:A 0
10 *799:A2 *799:A1 0
11 *799:A2 *799:B1 0
12 *799:A2 *799:B2 0
13 *799:A2 *1355:D 0
14 *799:A2 *156:21 0
15 *799:A2 *564:16 0
16 *799:A2 *568:8 0
17 *799:A2 *585:19 0
18 *799:A2 *586:30 0
19 *1361:A1 *1359:B1 0
20 *1361:A1 *1361:A2 0
21 *1361:A1 *1362:C 0
22 *1361:A1 *1363:A1 0
23 *1361:A1 *1363:B1 0
24 *1361:A1 *568:14 0
25 *1361:A1 *568:18 0
26 *1362:B *1359:B1 0
27 *1362:B *1363:A2 0
28 *1362:B *586:8 0
29 *1362:B *586:30 0
30 *141:5 *1360:A1 0
31 *141:5 *1360:B1 0
32 *141:26 *1360:A1 0
33 *141:26 *1360:B1 0
34 *1494:D *1361:A1 0
*RES
1 *783:Y *141:5 10.2464 
2 *141:5 *141:7 4.5 
3 *141:7 *1362:B 16.5857 
4 *141:7 *799:A2 23.8714 
5 *141:5 *141:26 1.35714 
6 *141:26 *1361:A1 23.925 
7 *141:26 *1359:A1 9.3 
*END

*D_NET *142 0.00161838
*CONN
*I *1050:A1 I *D sky130_fd_sc_hd__o31ai_1
*I *1048:A1 I *D sky130_fd_sc_hd__a21oi_1
*I *1036:B I *D sky130_fd_sc_hd__nor4_1
*I *784:Y O *D sky130_fd_sc_hd__clkinv_1
*CAP
1 *1050:A1 0.000266752
2 *1048:A1 0
3 *1036:B 0.000417515
4 *784:Y 0
5 *142:7 0.000542436
6 *142:4 0.000391674
7 *1036:B *784:A 0
8 *1036:B *915:A1 0
9 *1036:B *930:A1 0
10 *1036:B *620:41 0
11 *1036:B *636:17 0
12 *1050:A1 *784:A 0
13 *1050:A1 *316:196 0
14 *1050:A1 *636:17 0
15 *1050:A1 *694:25 0
16 *142:7 *784:A 0
17 *142:7 *1047:B 0
18 *142:7 *1048:B1 0
19 *142:7 *316:970 0
20 *1392:D *1036:B 0
*RES
1 *784:Y *142:4 9.3 
2 *142:4 *142:7 2.60714 
3 *142:7 *1036:B 36.3536 
4 *142:7 *1048:A1 9.3 
5 *142:4 *1050:A1 24.3357 
*END

*D_NET *143 0.000282408
*CONN
*I *971:A1 I *D sky130_fd_sc_hd__a31oi_1
*I *785:Y O *D sky130_fd_sc_hd__clkinv_1
*CAP
1 *971:A1 0.000141204
2 *785:Y 0.000141204
3 *971:A1 *971:B1 0
4 *971:A1 *287:20 0
5 *971:A1 *719:20 0
6 *971:A1 *720:20 0
7 *971:A1 *720:40 0
*RES
1 *785:Y *971:A1 30.6804 
*END

*D_NET *144 0.000723121
*CONN
*I *791:A2 I *D sky130_fd_sc_hd__o22ai_1
*I *788:Y O *D sky130_fd_sc_hd__a21oi_1
*CAP
1 *791:A2 0.00036156
2 *788:Y 0.00036156
3 *791:A2 *791:A1 0
4 *791:A2 *791:B1 0
5 *791:A2 *813:B 0
6 *791:A2 *813:C 0
7 *791:A2 *167:11 0
8 *791:A2 *581:26 0
*RES
1 *788:Y *791:A2 35.4036 
*END

*D_NET *145 0.000972686
*CONN
*I *791:B1 I *D sky130_fd_sc_hd__o22ai_1
*I *793:A2 I *D sky130_fd_sc_hd__a211o_1
*I *789:Y O *D sky130_fd_sc_hd__nand2b_1
*CAP
1 *791:B1 0.000289039
2 *793:A2 0.000197304
3 *789:Y 0
4 *145:4 0.000486343
5 *791:B1 *788:B1 0
6 *791:B1 *794:B 0
7 *791:B1 *795:A 0
8 *791:B1 *796:SLEEP 0
9 *791:B1 *813:C 0
10 *791:B1 *167:11 0
11 *791:B1 *580:50 0
12 *791:B1 *582:40 0
13 *791:B1 *583:55 0
14 *793:A2 *793:A1 0
15 *793:A2 *799:A3 0
16 *793:A2 *799:B1 0
17 *793:A2 *156:21 0
18 *793:A2 *564:16 0
19 *791:A2 *791:B1 0
*RES
1 *789:Y *145:4 9.3 
2 *145:4 *793:A2 31.7107 
3 *145:4 *791:B1 24.4964 
*END

*D_NET *146 0.000206206
*CONN
*I *791:B2 I *D sky130_fd_sc_hd__o22ai_1
*I *790:X O *D sky130_fd_sc_hd__lpflow_isobufsrc_1
*CAP
1 *791:B2 0.000103103
2 *790:X 0.000103103
3 *791:B2 *798:B 0
4 *791:B2 *799:B1 0
*RES
1 *790:X *791:B2 20.8143 
*END

*D_NET *147 0.000808227
*CONN
*I *792:A2 I *D sky130_fd_sc_hd__a211o_1
*I *791:Y O *D sky130_fd_sc_hd__o22ai_1
*CAP
1 *792:A2 0.000404114
2 *791:Y 0.000404114
3 *792:A2 *792:A1 0
4 *792:A2 *792:C1 0
5 *792:A2 *799:B1 0
6 *792:A2 *156:21 0
7 *792:A2 *564:16 0
*RES
1 *791:Y *792:A2 36.2161 
*END

*D_NET *148 0.000380236
*CONN
*I *799:B2 I *D sky130_fd_sc_hd__a32oi_1
*I *792:X O *D sky130_fd_sc_hd__a211o_1
*CAP
1 *799:B2 0.000190118
2 *792:X 0.000190118
3 *799:A2 *799:B2 0
*RES
1 *792:X *799:B2 31.725 
*END

*D_NET *149 0.000759796
*CONN
*I *798:B I *D sky130_fd_sc_hd__nand4_1
*I *793:X O *D sky130_fd_sc_hd__a211o_1
*CAP
1 *798:B 0.000379898
2 *793:X 0.000379898
3 *798:B *793:A1 0
4 *798:B *793:C1 0
5 *798:B *799:A3 0
6 *798:B *799:B1 0
7 *791:B2 *798:B 0
*RES
1 *793:X *798:B 26.5286 
*END

*D_NET *150 0.00173406
*CONN
*I *796:A I *D sky130_fd_sc_hd__lpflow_inputiso1p_1
*I *1348:C1 I *D sky130_fd_sc_hd__a2111oi_0
*I *794:Y O *D sky130_fd_sc_hd__nand2_1
*CAP
1 *796:A 0.000446441
2 *1348:C1 0.000420587
3 *794:Y 0
4 *150:5 0.000867028
5 *796:A *797:A 0
6 *796:A *799:A1 0
7 *796:A *799:A3 0
8 *796:A *801:B 0
9 *796:A *156:21 0
10 *796:A *583:38 0
11 *796:A *584:46 0
12 *796:A *586:49 0
13 *1348:C1 *782:A 0
14 *1348:C1 *799:A1 0
15 *1348:C1 *801:B 0
16 *1348:C1 *168:31 0
17 *1348:C1 *580:20 0
18 *799:A2 *796:A 0
19 *1342:A1 *1348:C1 0
20 *140:5 *1348:C1 0
*RES
1 *794:Y *150:5 13.8 
2 *150:5 *1348:C1 23.1214 
3 *150:5 *796:A 26.727 
*END

*D_NET *151 0.000442006
*CONN
*I *796:SLEEP I *D sky130_fd_sc_hd__lpflow_inputiso1p_1
*I *795:Y O *D sky130_fd_sc_hd__nand3_1
*CAP
1 *796:SLEEP 0.000221003
2 *795:Y 0.000221003
3 *796:SLEEP *813:C 0
4 *796:SLEEP *153:8 0
5 *796:SLEEP *583:38 0
6 *796:SLEEP *583:55 0
7 *791:B1 *796:SLEEP 0
*RES
1 *795:Y *796:SLEEP 32.5107 
*END

*D_NET *152 0.000753282
*CONN
*I *813:B I *D sky130_fd_sc_hd__nor3_1
*I *798:C I *D sky130_fd_sc_hd__nand4_1
*I *796:X O *D sky130_fd_sc_hd__lpflow_inputiso1p_1
*CAP
1 *813:B 0.000170439
2 *798:C 0
3 *796:X 0.000206202
4 *152:8 0.000376641
5 *813:B *791:A1 0
6 *813:B *813:A 0
7 *152:8 *813:A 0
8 *152:8 *153:8 0
9 *152:8 *586:49 0
10 *791:A2 *813:B 0
*RES
1 *796:X *152:8 18.2286 
2 *152:8 *798:C 13.8 
3 *152:8 *813:B 17.5143 
*END

*D_NET *153 0.0015332
*CONN
*I *798:D I *D sky130_fd_sc_hd__nand4_1
*I *799:A3 I *D sky130_fd_sc_hd__a32oi_1
*I *797:Y O *D sky130_fd_sc_hd__nor2_1
*CAP
1 *798:D 2.27896e-05
2 *799:A3 0.000428968
3 *797:Y 0.00031484
4 *153:8 0.000766598
5 *799:A3 *793:A1 0
6 *799:A3 *799:B1 0
7 *799:A3 *156:21 0
8 *799:A3 *581:42 0
9 *799:A3 *582:11 0
10 *153:8 *813:C 0
11 *153:8 *586:49 0
12 *793:A2 *799:A3 0
13 *796:A *799:A3 0
14 *796:SLEEP *153:8 0
15 *798:B *799:A3 0
16 *152:8 *153:8 0
*RES
1 *797:Y *153:8 20.5411 
2 *153:8 *799:A3 23.8826 
3 *153:8 *798:D 14.3804 
*END

*D_NET *154 0.000958301
*CONN
*I *799:B1 I *D sky130_fd_sc_hd__a32oi_1
*I *798:Y O *D sky130_fd_sc_hd__nand4_1
*CAP
1 *799:B1 0.000479151
2 *798:Y 0.000479151
3 *799:B1 *793:A1 0
4 *799:B1 *793:C1 0
5 *799:B1 *799:A1 0
6 *791:B2 *799:B1 0
7 *792:A2 *799:B1 0
8 *793:A2 *799:B1 0
9 *798:B *799:B1 0
10 *799:A2 *799:B1 0
11 *799:A3 *799:B1 0
*RES
1 *798:Y *799:B1 28.6 
*END

*D_NET *155 0.000916583
*CONN
*I *801:B I *D sky130_fd_sc_hd__xor2_1
*I *799:Y O *D sky130_fd_sc_hd__a32oi_1
*CAP
1 *801:B 0.000458292
2 *799:Y 0.000458292
3 *801:B *802:A 0
4 *801:B *802:B 0
5 *801:B *168:31 0
6 *796:A *801:B 0
7 *1348:C1 *801:B 0
*RES
1 *799:Y *801:B 37.8857 
*END

*D_NET *156 0.00212862
*CONN
*I *816:A1 I *D sky130_fd_sc_hd__a21o_1
*I *802:A I *D sky130_fd_sc_hd__nand2_1
*I *800:Y O *D sky130_fd_sc_hd__a21oi_1
*CAP
1 *816:A1 0.000134119
2 *802:A 0.000129938
3 *800:Y 0.000800251
4 *156:21 0.00106431
5 *802:A *802:B 0
6 *802:A *170:10 0
7 *816:A1 *802:B 0
8 *816:A1 *816:A2 0
9 *816:A1 *1348:A2 0
10 *816:A1 *170:10 0
11 *156:21 *782:A 0
12 *156:21 *799:A1 0
13 *156:21 *802:B 0
14 *156:21 *816:A2 0
15 *156:21 *167:11 0
16 *156:21 *168:31 0
17 *156:21 *564:16 0
18 *156:21 *564:25 0
19 *156:21 *580:20 0
20 *156:21 *581:42 0
21 *156:21 *586:30 0
22 *792:A2 *156:21 0
23 *793:A2 *156:21 0
24 *796:A *156:21 0
25 *799:A2 *156:21 0
26 *799:A3 *156:21 0
27 *801:B *802:A 0
*RES
1 *800:Y *156:21 36.6259 
2 *156:21 *802:A 12.108 
3 *156:21 *816:A1 12.0991 
*END

*D_NET *157 0.000740116
*CONN
*I *816:A2 I *D sky130_fd_sc_hd__a21o_1
*I *802:B I *D sky130_fd_sc_hd__nand2_1
*I *801:X O *D sky130_fd_sc_hd__xor2_1
*CAP
1 *816:A2 0.000138611
2 *802:B 0.000231447
3 *801:X 0
4 *157:4 0.000370058
5 *816:A2 *1343:B1 0
6 *801:B *802:B 0
7 *802:A *802:B 0
8 *816:A1 *802:B 0
9 *816:A1 *816:A2 0
10 *156:21 *802:B 0
11 *156:21 *816:A2 0
*RES
1 *801:X *157:4 9.3 
2 *157:4 *802:B 14.4071 
3 *157:4 *816:A2 12.3179 
*END

*D_NET *158 0.00229985
*CONN
*I *1333:A2 I *D sky130_fd_sc_hd__a21oi_1
*I *819:A1 I *D sky130_fd_sc_hd__a221o_1
*I *810:A1 I *D sky130_fd_sc_hd__o21ai_0
*I *1342:B2 I *D sky130_fd_sc_hd__a22oi_1
*I *802:Y O *D sky130_fd_sc_hd__nand2_1
*CAP
1 *1333:A2 0.000549555
2 *819:A1 0
3 *810:A1 0.000108237
4 *1342:B2 0
5 *802:Y 0.000181569
6 *158:22 0.000108237
7 *158:20 0.000860122
8 *158:9 0.000492135
9 *810:A1 *818:A 0
10 *810:A1 *1366:B 0
11 *810:A1 *167:11 0
12 *1333:A2 *1333:B1 0
13 *1333:A2 *1502:RESET_B 0
14 *1333:A2 *1503:RESET_B 0
15 *1333:A2 *704:11 0
16 *1333:A2 *705:5 0
17 *1333:A2 *705:7 0
18 *1333:A2 *705:53 0
19 *1333:A2 *746:44 0
20 *1333:A2 *769:59 0
21 *158:9 *168:31 0
22 *158:9 *170:10 0
23 *158:20 *1343:A2 0
24 *158:20 *168:31 0
25 *158:20 *704:11 0
26 *158:20 *769:59 0
27 *1503:D *1333:A2 0
*RES
1 *802:Y *158:9 22.2286 
2 *158:9 *1342:B2 9.3 
3 *158:9 *158:20 11.1964 
4 *158:20 *158:22 4.5 
5 *158:22 *810:A1 11.4964 
6 *158:22 *819:A1 9.3 
7 *158:20 *1333:A2 25.5857 
*END

*D_NET *159 0.000782803
*CONN
*I *828:B I *D sky130_fd_sc_hd__nand2_1
*I *1340:A I *D sky130_fd_sc_hd__nor2_1
*I *1336:A2 I *D sky130_fd_sc_hd__o22a_1
*I *803:Y O *D sky130_fd_sc_hd__nand2_1
*CAP
1 *828:B 0.00014075
2 *1340:A 0
3 *1336:A2 2.56688e-05
4 *803:Y 0.000124732
5 *159:23 0.000241001
6 *159:10 0.000250651
7 *828:B *829:A 0
8 *828:B *830:A2 0
9 *828:B *1364:A 0
10 *159:10 *803:A 0
11 *159:10 *1506:CLK 0
12 *159:10 *706:21 0
13 *159:23 *558:7 0
14 *159:23 *703:14 0
15 *1336:A1 *828:B 0
16 *1365:A2 *828:B 0
*RES
1 *803:Y *159:10 21.0857 
2 *159:10 *1336:A2 9.83571 
3 *159:10 *159:23 11.2143 
4 *159:23 *1340:A 9.3 
5 *159:23 *828:B 12.3 
*END

*D_NET *160 0.00132825
*CONN
*I *805:B1 I *D sky130_fd_sc_hd__a21oi_1
*I *819:A2 I *D sky130_fd_sc_hd__a221o_1
*I *804:X O *D sky130_fd_sc_hd__and3_1
*CAP
1 *805:B1 0
2 *819:A2 0.000133905
3 *804:X 0.000530222
4 *160:10 0.000664127
5 *819:A2 *810:A2 0
6 *819:A2 *810:B1 0
7 *819:A2 *1366:B 0
8 *160:10 *805:A1 0
9 *160:10 *810:B1 0
10 *160:10 *1366:B 0
11 *160:10 *1366:D_N 0
12 *160:10 *575:11 0
13 *160:10 *704:11 0
*RES
1 *804:X *160:10 29.425 
2 *160:10 *819:A2 12.0946 
3 *160:10 *805:B1 9.3 
*END

*D_NET *161 0.000171125
*CONN
*I *810:A2 I *D sky130_fd_sc_hd__o21ai_0
*I *805:Y O *D sky130_fd_sc_hd__a21oi_1
*CAP
1 *810:A2 8.55626e-05
2 *805:Y 8.55626e-05
3 *810:A2 *810:B1 0
4 *819:A2 *810:A2 0
*RES
1 *805:Y *810:A2 20.3857 
*END

*D_NET *162 0.000954678
*CONN
*I *807:C I *D sky130_fd_sc_hd__nor3_1
*I *806:Y O *D sky130_fd_sc_hd__nand2_1
*CAP
1 *807:C 0.000477339
2 *806:Y 0.000477339
3 *807:C uio_out[7] 0
4 *807:C *807:B 0
5 *807:C *1365:B2 0
6 *807:C *1500:CLK 0
7 *807:C *1500:RESET_B 0
8 *807:C *163:9 0
9 *807:C *592:112 0
10 *807:C *592:132 0
*RES
1 *806:Y *807:C 37.8321 
*END

*D_NET *163 0.00420771
*CONN
*I *808:B I *D sky130_fd_sc_hd__and2_0
*I *815:A_N I *D sky130_fd_sc_hd__nand2b_1
*I *814:SLEEP I *D sky130_fd_sc_hd__lpflow_isobufsrc_1
*I *807:Y O *D sky130_fd_sc_hd__nor3_1
*CAP
1 *808:B 1.21519e-05
2 *815:A_N 0.000163252
3 *814:SLEEP 0.000105788
4 *807:Y 0.00135207
5 *163:13 0.000739633
6 *163:9 0.00183482
7 *814:SLEEP *814:A 0
8 *814:SLEEP *1502:CLK 0
9 *814:SLEEP *169:8 0
10 *815:A_N *815:B 0
11 *815:A_N *169:8 0
12 *163:9 uio_oe[0] 0
13 *163:9 uio_oe[1] 0
14 *163:9 uio_oe[2] 0
15 *163:9 uio_oe[3] 0
16 *163:9 uio_oe[5] 0
17 *163:9 uio_oe[6] 0
18 *163:9 uio_oe[7] 0
19 *163:9 *1333:B1 0
20 *163:9 *577:12 0
21 *163:9 *592:132 0
22 *163:9 *746:29 0
23 *163:9 *746:34 0
24 *163:13 *820:A2 0
25 *163:13 *1333:B1 0
26 *163:13 *169:13 0
27 *807:C *163:9 0
28 *1502:D *814:SLEEP 0
29 *1502:D *815:A_N 0
*RES
1 *807:Y *163:9 23.3603 
2 *163:9 *163:13 5.11453 
3 *163:13 *814:SLEEP 16.2018 
4 *163:13 *815:A_N 17.483 
5 *163:9 *808:B 17.4868 
*END

*D_NET *164 0.000727407
*CONN
*I *809:B1 I *D sky130_fd_sc_hd__a31oi_1
*I *1366:A I *D sky130_fd_sc_hd__nor4b_1
*I *808:X O *D sky130_fd_sc_hd__and2_0
*CAP
1 *809:B1 4.32091e-05
2 *1366:A 0.000232793
3 *808:X 8.77017e-05
4 *164:5 0.000363703
5 *809:B1 *752:47 0
6 *1366:A *809:A1 0
7 *1366:A *1502:RESET_B 0
8 *1366:A *1503:RESET_B 0
9 *1366:A *551:8 0
10 *164:5 *809:A2 0
11 *164:5 *820:A3 0
12 *164:5 *752:47 0
*RES
1 *808:X *164:5 11.0679 
2 *164:5 *1366:A 23.5857 
3 *164:5 *809:B1 10.2643 
*END

*D_NET *165 0.000813916
*CONN
*I *810:B1 I *D sky130_fd_sc_hd__o21ai_0
*I *809:Y O *D sky130_fd_sc_hd__a31oi_1
*CAP
1 *810:B1 0.000406958
2 *809:Y 0.000406958
3 *810:B1 *805:A2 0
4 *810:B1 *808:A 0
5 *810:B1 *809:A1 0
6 *810:B1 *809:A2 0
7 *810:B1 *820:A3 0
8 *810:B1 *1366:B 0
9 *810:B1 *551:8 0
10 *810:B1 *704:6 0
11 *810:B1 *704:11 0
12 *810:B1 *752:47 0
13 *810:A2 *810:B1 0
14 *819:A2 *810:B1 0
15 *160:10 *810:B1 0
*RES
1 *809:Y *810:B1 36.3321 
*END

*D_NET *166 0.00107624
*CONN
*I *813:C I *D sky130_fd_sc_hd__nor3_1
*I *812:Y O *D sky130_fd_sc_hd__nand2_1
*CAP
1 *813:C 0.000538122
2 *812:Y 0.000538122
3 *813:C *795:A 0
4 *813:C *564:25 0
5 *813:C *583:38 0
6 *813:C *586:49 0
7 *791:A2 *813:C 0
8 *791:B1 *813:C 0
9 *796:SLEEP *813:C 0
10 *153:8 *813:C 0
*RES
1 *812:Y *813:C 39.5286 
*END

*D_NET *167 0.00177343
*CONN
*I *820:B1 I *D sky130_fd_sc_hd__a32o_1
*I *818:A I *D sky130_fd_sc_hd__nor3_1
*I *813:Y O *D sky130_fd_sc_hd__nor3_1
*CAP
1 *820:B1 0.000156002
2 *818:A 2.0535e-05
3 *813:Y 0.000710179
4 *167:11 0.000886716
5 *820:B1 *819:C1 0
6 *820:B1 *168:9 0
7 *820:B1 *170:10 0
8 *820:B1 *769:59 0
9 *167:11 *1342:B1 0
10 *167:11 *1343:B1 0
11 *167:11 *1348:B1 0
12 *167:11 *168:31 0
13 *167:11 *170:10 0
14 *167:11 *564:16 0
15 *791:A2 *167:11 0
16 *791:B1 *167:11 0
17 *810:A1 *818:A 0
18 *810:A1 *167:11 0
19 *820:A1 *820:B1 0
20 *1342:A1 *167:11 0
21 *138:29 *820:B1 0
22 *138:29 *167:11 0
23 *156:21 *167:11 0
*RES
1 *813:Y *167:11 34.0143 
2 *167:11 *818:A 9.72857 
3 *167:11 *820:B1 21.7375 
*END

*D_NET *168 0.00437478
*CONN
*I *819:B1 I *D sky130_fd_sc_hd__a221o_1
*I *1353:A1 I *D sky130_fd_sc_hd__o22ai_1
*I *1341:A I *D sky130_fd_sc_hd__nor2_1
*I *1348:A1 I *D sky130_fd_sc_hd__a2111oi_0
*I *1342:A2 I *D sky130_fd_sc_hd__a22oi_1
*I *814:X O *D sky130_fd_sc_hd__lpflow_isobufsrc_1
*CAP
1 *819:B1 2.26741e-05
2 *1353:A1 0.000492758
3 *1341:A 0
4 *1348:A1 2.0535e-05
5 *1342:A2 1.52301e-05
6 *814:X 0.000255465
7 *168:45 0.00119223
8 *168:31 0.00123939
9 *168:15 0.000696483
10 *168:9 0.000440009
11 *1342:A2 *1343:A2 0
12 *1353:A1 *1341:B 0
13 *1353:A1 *1353:A2 0
14 *1353:A1 *1354:A2 0
15 *1353:A1 *1354:B1 0
16 *1353:A1 *1364:B 0
17 *1353:A1 *1489:RESET_B 0
18 *1353:A1 *559:19 0
19 *1353:A1 *559:26 0
20 *1353:A1 *565:30 0
21 *1353:A1 *584:23 0
22 *1353:A1 *592:377 0
23 *168:9 *814:A 0
24 *168:9 *818:C 0
25 *168:9 *819:C1 0
26 *168:9 *820:A2 0
27 *168:9 *1366:B 0
28 *168:9 *169:13 0
29 *168:9 *172:5 0
30 *168:15 *1343:A2 0
31 *168:15 *769:59 0
32 *168:31 *782:A 0
33 *168:31 *801:A 0
34 *168:31 *170:10 0
35 *168:31 *564:16 0
36 *168:45 *1341:B 0
37 *168:45 *1346:A 0
38 *168:45 *1346:B 0
39 *168:45 *1346:C 0
40 *168:45 *1348:B1 0
41 *168:45 *1488:RESET_B 0
42 *168:45 *559:19 0
43 *168:45 *769:54 0
44 *801:B *168:31 0
45 *820:B1 *168:9 0
46 *1342:A1 *1348:A1 0
47 *1342:A1 *168:31 0
48 *1348:C1 *168:31 0
49 *1489:D *168:45 0
50 *1492:D *1353:A1 0
51 *138:29 *168:15 0
52 *156:21 *168:31 0
53 *158:9 *168:31 0
54 *158:20 *168:31 0
55 *167:11 *168:31 0
*RES
1 *814:X *168:9 23.7643 
2 *168:9 *168:15 12.6964 
3 *168:15 *1342:A2 9.81339 
4 *168:15 *168:31 20.3036 
5 *168:31 *1348:A1 9.72857 
6 *168:31 *168:45 14.6607 
7 *168:45 *1341:A 9.3 
8 *168:45 *1353:A1 28.8714 
9 *168:9 *819:B1 9.83571 
*END

*D_NET *169 0.00257768
*CONN
*I *817:A I *D sky130_fd_sc_hd__nor2_1
*I *1333:B1 I *D sky130_fd_sc_hd__a21oi_1
*I *818:B I *D sky130_fd_sc_hd__nor3_1
*I *815:Y O *D sky130_fd_sc_hd__nand2b_1
*CAP
1 *817:A 0
2 *1333:B1 0.0006617
3 *818:B 1.07853e-05
4 *815:Y 0.00037305
5 *169:13 0.000915788
6 *169:8 0.000616353
7 *1333:B1 *801:A 0
8 *1333:B1 *805:A1 0
9 *1333:B1 *809:A1 0
10 *1333:B1 *820:A2 0
11 *1333:B1 *1503:RESET_B 0
12 *1333:B1 *551:8 0
13 *1333:B1 *577:12 0
14 *169:8 *814:A 0
15 *169:8 *815:B 0
16 *169:13 *801:A 0
17 *169:13 *814:A 0
18 *169:13 *817:B 0
19 *814:SLEEP *169:8 0
20 *815:A_N *169:8 0
21 *1333:A2 *1333:B1 0
22 *163:9 *1333:B1 0
23 *163:13 *1333:B1 0
24 *163:13 *169:13 0
25 *168:9 *169:13 0
*RES
1 *815:Y *169:8 21.9964 
2 *169:8 *169:13 6.05968 
3 *169:13 *818:B 17.4868 
4 *169:13 *1333:B1 21.8367 
5 *169:8 *817:A 13.8 
*END

*D_NET *170 0.00157294
*CONN
*I *1348:A2 I *D sky130_fd_sc_hd__a2111oi_0
*I *818:C I *D sky130_fd_sc_hd__nor3_1
*I *817:B I *D sky130_fd_sc_hd__nor2_1
*I *816:X O *D sky130_fd_sc_hd__a21o_1
*CAP
1 *1348:A2 0.000203942
2 *818:C 4.23535e-05
3 *817:B 0.000221792
4 *816:X 0
5 *170:10 0.000582529
6 *170:4 0.000522326
7 *1348:A2 *1343:B1 0
8 *1348:A2 *556:12 0
9 *170:10 *801:A 0
10 *802:A *170:10 0
11 *816:A1 *1348:A2 0
12 *816:A1 *170:10 0
13 *820:B1 *170:10 0
14 *1342:A1 *1348:A2 0
15 *138:29 *1348:A2 0
16 *138:29 *170:10 0
17 *158:9 *170:10 0
18 *167:11 *170:10 0
19 *168:9 *818:C 0
20 *168:31 *170:10 0
21 *169:13 *817:B 0
*RES
1 *816:X *170:4 9.3 
2 *170:4 *170:10 15.9643 
3 *170:10 *817:B 23.1393 
4 *170:10 *818:C 10.2464 
5 *170:4 *1348:A2 22.8179 
*END

*D_NET *171 0.000617527
*CONN
*I *820:B2 I *D sky130_fd_sc_hd__a32o_1
*I *817:Y O *D sky130_fd_sc_hd__nor2_1
*CAP
1 *820:B2 0.000308763
2 *817:Y 0.000308763
3 *820:B2 *814:A 0
4 *820:B2 *820:A3 0
5 *820:B2 *1502:CLK 0
6 *820:A1 *820:B2 0
*RES
1 *817:Y *820:B2 34.1536 
*END

*D_NET *172 0.00125121
*CONN
*I *1366:B I *D sky130_fd_sc_hd__nor4b_1
*I *819:C1 I *D sky130_fd_sc_hd__a221o_1
*I *818:Y O *D sky130_fd_sc_hd__nor3_1
*CAP
1 *1366:B 0.000463322
2 *819:C1 7.75762e-05
3 *818:Y 8.4707e-05
4 *172:5 0.000625605
5 *1366:B *805:A1 0
6 *810:A1 *1366:B 0
7 *810:B1 *1366:B 0
8 *819:A2 *1366:B 0
9 *820:B1 *819:C1 0
10 *160:10 *1366:B 0
11 *168:9 *819:C1 0
12 *168:9 *1366:B 0
13 *168:9 *172:5 0
*RES
1 *818:Y *172:5 11.0679 
2 *172:5 *819:C1 19.9786 
3 *172:5 *1366:B 19.0321 
*END

*D_NET *173 0.0054362
*CONN
*I *866:A1 I *D sky130_fd_sc_hd__o21ai_0
*I *987:C1 I *D sky130_fd_sc_hd__a221oi_1
*I *858:A I *D sky130_fd_sc_hd__nor2_1
*I *982:B1 I *D sky130_fd_sc_hd__a21oi_1
*I *827:A1 I *D sky130_fd_sc_hd__o32ai_1
*I *870:A I *D sky130_fd_sc_hd__nor2_1
*I *822:SLEEP I *D sky130_fd_sc_hd__lpflow_isobufsrc_1
*I *821:Y O *D sky130_fd_sc_hd__nand2b_1
*CAP
1 *866:A1 0
2 *987:C1 9.41867e-06
3 *858:A 0.000144336
4 *982:B1 1.21519e-05
5 *827:A1 0.000283563
6 *870:A 0.000201011
7 *822:SLEEP 0.000329482
8 *821:Y 0
9 *173:67 0.000266228
10 *173:55 0.000900719
11 *173:49 0.00123172
12 *173:39 0.000993416
13 *173:6 0.00067021
14 *173:5 0.000393949
15 *822:SLEEP *975:A1 0
16 *822:SLEEP *1496:CLK 0
17 *827:A1 *823:A 0
18 *827:A1 *827:A2 0
19 *827:A1 *870:B 0
20 *827:A1 *176:12 0
21 *827:A1 *592:68 0
22 *858:A *858:B 0
23 *858:A *599:26 0
24 *870:A *870:B 0
25 *870:A *976:A 0
26 *870:A *976:B 0
27 *870:A *1496:CLK 0
28 *870:A *174:17 0
29 *173:6 *870:B 0
30 *173:6 *176:12 0
31 *173:6 *592:80 0
32 *173:6 *723:53 0
33 *173:55 *857:A 0
34 *173:55 *866:B1 0
35 *173:55 *875:B1 0
36 *173:55 *1497:CLK 0
37 *173:55 *210:21 0
38 *173:55 *588:10 0
39 *173:55 *592:57 0
40 *173:55 *596:11 0
41 *173:55 *723:40 0
42 *173:67 *588:10 0
43 *1383:D *822:SLEEP 0
44 *1496:D *870:A 0
*RES
1 *821:Y *173:5 13.8 
2 *173:5 *173:6 3.46429 
3 *173:6 *822:SLEEP 20.7821 
4 *173:6 *870:A 18.2643 
5 *173:5 *173:39 10.375 
6 *173:39 *827:A1 25.4071 
7 *173:39 *173:49 9.57143 
8 *173:49 *173:55 15.0367 
9 *173:55 *982:B1 17.4868 
10 *173:55 *173:67 3.81733 
11 *173:67 *858:A 16.9696 
12 *173:67 *987:C1 14.0768 
13 *173:49 *866:A1 9.3 
*END

*D_NET *174 0.00192887
*CONN
*I *998:B2 I *D sky130_fd_sc_hd__a22o_1
*I *874:B1 I *D sky130_fd_sc_hd__a32oi_1
*I *827:B1 I *D sky130_fd_sc_hd__o32ai_1
*I *822:X O *D sky130_fd_sc_hd__lpflow_isobufsrc_1
*CAP
1 *998:B2 4.53482e-05
2 *874:B1 0.000438936
3 *827:B1 0
4 *822:X 8.29787e-05
5 *174:17 0.000836108
6 *174:6 0.000525499
7 *874:B1 *827:A3 0
8 *874:B1 *827:B2 0
9 *874:B1 *871:B 0
10 *874:B1 *873:B1 0
11 *874:B1 *874:B2 0
12 *998:B2 *977:B 0
13 *998:B2 *998:A1 0
14 *174:6 *975:B2 0
15 *174:6 *998:A1 0
16 *174:6 *242:20 0
17 *174:17 *827:B2 0
18 *174:17 *871:B 0
19 *174:17 *975:B1 0
20 *174:17 *977:B 0
21 *174:17 *242:20 0
22 *870:A *174:17 0
*RES
1 *822:X *174:6 15.7464 
2 *174:6 *174:17 12.9107 
3 *174:17 *827:B1 9.3 
4 *174:17 *874:B1 18.5857 
5 *174:6 *998:B2 14.7464 
*END

*D_NET *175 0.000407278
*CONN
*I *827:B2 I *D sky130_fd_sc_hd__o32ai_1
*I *823:X O *D sky130_fd_sc_hd__lpflow_isobufsrc_1
*CAP
1 *827:B2 0.000203639
2 *823:X 0.000203639
3 *827:B2 *827:A3 0
4 *827:B2 *871:B 0
5 *827:B2 *874:B2 0
6 *874:B1 *827:B2 0
7 *174:17 *827:B2 0
*RES
1 *823:X *827:B2 22.85 
*END

*D_NET *176 0.00307755
*CONN
*I *856:B I *D sky130_fd_sc_hd__and3_1
*I *825:B I *D sky130_fd_sc_hd__nand2_1
*I *870:B I *D sky130_fd_sc_hd__nor2_1
*I *824:Y O *D sky130_fd_sc_hd__nor2_1
*CAP
1 *856:B 0.000241714
2 *825:B 0
3 *870:B 0.000101855
4 *824:Y 0.000932645
5 *176:24 0.000504274
6 *176:12 0.00129706
7 *856:B *825:A 0
8 *856:B *856:A 0
9 *856:B *177:5 0
10 *856:B *596:13 0
11 *856:B *596:15 0
12 *176:12 *904:A 0
13 *176:12 *219:17 0
14 *176:12 *219:84 0
15 *176:12 *592:68 0
16 *176:12 *750:32 0
17 *176:24 *976:A 0
18 *176:24 *177:5 0
19 *827:A1 *870:B 0
20 *827:A1 *176:12 0
21 *870:A *870:B 0
22 *1389:D *176:12 0
23 *1496:D *870:B 0
24 *1496:D *176:24 0
25 *173:6 *870:B 0
26 *173:6 *176:12 0
*RES
1 *824:Y *176:12 33.5679 
2 *176:12 *870:B 16.05 
3 *176:12 *176:24 10.0893 
4 *176:24 *825:B 9.3 
5 *176:24 *856:B 14.2821 
*END

*D_NET *177 0.00100496
*CONN
*I *827:A2 I *D sky130_fd_sc_hd__o32ai_1
*I *976:A I *D sky130_fd_sc_hd__nand2_1
*I *825:Y O *D sky130_fd_sc_hd__nand2_1
*CAP
1 *827:A2 8.57316e-05
2 *976:A 0.000274502
3 *825:Y 0.000142248
4 *177:5 0.000502482
5 *976:A *1496:CLK 0
6 *827:A1 *827:A2 0
7 *856:B *177:5 0
8 *870:A *976:A 0
9 *1496:D *827:A2 0
10 *1496:D *976:A 0
11 *176:24 *976:A 0
12 *176:24 *177:5 0
*RES
1 *825:Y *177:5 12.3 
2 *177:5 *976:A 24.1929 
3 *177:5 *827:A2 20.2464 
*END

*D_NET *178 0.00448835
*CONN
*I *856:C I *D sky130_fd_sc_hd__and3_1
*I *827:A3 I *D sky130_fd_sc_hd__o32ai_1
*I *826:Y O *D sky130_fd_sc_hd__o31ai_1
*CAP
1 *856:C 0.000220997
2 *827:A3 0.000340172
3 *826:Y 0.00168301
4 *178:14 0.00224418
5 *827:A3 *974:A 0
6 *827:A3 *997:A 0
7 *827:A3 *597:23 0
8 *856:C *875:B1 0
9 *856:C *997:A 0
10 *856:C *1497:CLK 0
11 *856:C *596:13 0
12 *856:C *596:15 0
13 *856:C *596:24 0
14 *178:14 *873:A2 0
15 *178:14 *875:B1 0
16 *178:14 *974:A 0
17 *178:14 *985:A2 0
18 *178:14 *989:B 0
19 *178:14 *997:A 0
20 *178:14 *204:8 0
21 *178:14 *210:21 0
22 *178:14 *599:18 0
23 *178:14 *600:23 0
24 *178:14 *602:15 0
25 *178:14 *779:20 0
26 *178:14 *779:103 0
27 *827:B2 *827:A3 0
28 *874:B1 *827:A3 0
*RES
1 *826:Y *178:14 37.0599 
2 *178:14 *827:A3 30.0321 
3 *178:14 *856:C 18.6929 
*END

*D_NET *179 0.000596987
*CONN
*I *830:B1 I *D sky130_fd_sc_hd__o21ai_0
*I *1364:A I *D sky130_fd_sc_hd__nand2_1
*I *828:Y O *D sky130_fd_sc_hd__nand2_1
*CAP
1 *830:B1 0.000121071
2 *1364:A 0.000177422
3 *828:Y 0
4 *179:4 0.000298493
5 *830:B1 *830:A2 0
6 *1364:A *803:A 0
7 *1364:A *830:A2 0
8 *1364:A *704:34 0
9 *828:B *1364:A 0
10 *1365:A2 *830:B1 0
11 *1365:A2 *1364:A 0
*RES
1 *828:Y *179:4 9.3 
2 *179:4 *1364:A 22.2107 
3 *179:4 *830:B1 11.8893 
*END

*D_NET *180 0.000513952
*CONN
*I *830:A2 I *D sky130_fd_sc_hd__o21ai_0
*I *829:Y O *D sky130_fd_sc_hd__nor2_1
*CAP
1 *830:A2 0.000256976
2 *829:Y 0.000256976
3 *830:A2 *829:A 0
4 *830:A2 *830:A1 0
5 *828:B *830:A2 0
6 *830:B1 *830:A2 0
7 *1364:A *830:A2 0
*RES
1 *829:Y *830:A2 33.1714 
*END

*D_NET *181 0.00779309
*CONN
*I *960:B1 I *D sky130_fd_sc_hd__a21oi_1
*I *964:B1 I *D sky130_fd_sc_hd__a21oi_1
*I *962:B1 I *D sky130_fd_sc_hd__a21oi_1
*I *844:A I *D sky130_fd_sc_hd__nand3_1
*I *845:B I *D sky130_fd_sc_hd__nand4_1
*I *878:B I *D sky130_fd_sc_hd__nand2_1
*I *967:B1 I *D sky130_fd_sc_hd__a21oi_1
*I *969:B1 I *D sky130_fd_sc_hd__a21oi_1
*I *973:A I *D sky130_fd_sc_hd__nor2_1
*I *854:A2 I *D sky130_fd_sc_hd__a22oi_1
*I *840:A I *D sky130_fd_sc_hd__nor2_1
*I *832:X O *D sky130_fd_sc_hd__xor2_1
*CAP
1 *960:B1 0
2 *964:B1 0.000141968
3 *962:B1 0
4 *844:A 0
5 *845:B 0
6 *878:B 0.000167686
7 *967:B1 0.000278506
8 *969:B1 0
9 *973:A 0.00031761
10 *854:A2 0.000130232
11 *840:A 0
12 *832:X 0.000541171
13 *181:111 0.000184441
14 *181:64 0.000460713
15 *181:61 0.00076139
16 *181:58 0.000507466
17 *181:40 0.000399029
18 *181:35 0.00070442
19 *181:27 0.000550277
20 *181:25 0.000588719
21 *181:19 0.000974943
22 *181:6 0.00108452
23 *854:A2 *848:B 0
24 *854:A2 *854:A1 0
25 *854:A2 *854:B1 0
26 *854:A2 *592:222 0
27 *854:A2 *709:7 0
28 *878:B *878:A 0
29 *878:B *188:15 0
30 *878:B *197:11 0
31 *878:B *200:14 0
32 *964:B1 *713:16 0
33 *964:B1 *713:46 0
34 *964:B1 *714:8 0
35 *964:B1 *714:26 0
36 *967:B1 *288:19 0
37 *973:A *969:A1 0
38 *973:A *1381:RESET_B 0
39 *973:A *288:11 0
40 *973:A *719:12 0
41 *181:6 *958:B 0
42 *181:6 *1164:A1 0
43 *181:6 *1164:B1 0
44 *181:6 *1376:RESET_B 0
45 *181:6 *592:284 0
46 *181:6 *714:8 0
47 *181:19 *958:B 0
48 *181:19 *962:A1 0
49 *181:19 *713:21 0
50 *181:19 *717:8 0
51 *181:25 *191:11 0
52 *181:25 *192:9 0
53 *181:27 *845:C 0
54 *181:27 *852:B 0
55 *181:27 *192:9 0
56 *181:27 *192:11 0
57 *181:35 *182:17 0
58 *181:35 *192:9 0
59 *181:35 *194:6 0
60 *181:35 *764:22 0
61 *181:40 *847:A2 0
62 *181:40 *878:A 0
63 *181:40 *182:17 0
64 *181:40 *592:222 0
65 *181:61 *1379:CLK 0
66 *181:61 *188:15 0
67 *181:61 *718:8 0
68 *181:64 *969:A1 0
69 *181:64 *288:11 0
70 *181:64 *288:19 0
71 *181:111 *714:8 0
72 *1376:D *964:B1 0
73 *1377:D *181:25 0
74 *1378:D *181:6 0
75 *1382:D *973:A 0
*RES
1 *832:X *181:6 26.3491 
2 *181:6 *181:19 15.4777 
3 *181:19 *181:25 19.6071 
4 *181:25 *181:27 2.45536 
5 *181:27 *181:35 18.3125 
6 *181:35 *181:40 10.2679 
7 *181:40 *840:A 13.8 
8 *181:40 *854:A2 16.733 
9 *181:35 *181:58 4.5 
10 *181:58 *181:61 12.2143 
11 *181:61 *181:64 3.01786 
12 *181:64 *973:A 25.2286 
13 *181:64 *969:B1 9.3 
14 *181:61 *967:B1 15.175 
15 *181:58 *878:B 17.5143 
16 *181:27 *845:B 9.3 
17 *181:25 *844:A 9.3 
18 *181:19 *962:B1 9.3 
19 *181:6 *181:111 1.05804 
20 *181:111 *964:B1 16.9607 
21 *181:111 *960:B1 13.8 
*END

*D_NET *182 0.00699996
*CONN
*I *958:B I *D sky130_fd_sc_hd__nand3_1
*I *849:A I *D sky130_fd_sc_hd__nor2_1
*I *847:A2 I *D sky130_fd_sc_hd__a222oi_1
*I *846:A I *D sky130_fd_sc_hd__nand2_1
*I *970:B1 I *D sky130_fd_sc_hd__o21ai_0
*I *867:B I *D sky130_fd_sc_hd__nand3_1
*I *833:Y O *D sky130_fd_sc_hd__xnor2_1
*CAP
1 *958:B 0.000619497
2 *849:A 0
3 *847:A2 0.000202751
4 *846:A 0
5 *970:B1 0.00034888
6 *867:B 0.000228184
7 *833:Y 0.000221821
8 *182:33 0.000416261
9 *182:19 0.000584125
10 *182:17 0.00116407
11 *182:12 0.00152291
12 *182:7 0.00169147
13 *847:A2 *847:C1 0
14 *847:A2 *847:C2 0
15 *847:A2 *878:A 0
16 *847:A2 *592:222 0
17 *867:B *867:C 0
18 *867:B *764:64 0
19 *867:B *764:69 0
20 *958:B *842:A 0
21 *958:B *1512:D 0
22 *958:B *767:28 0
23 *970:B1 *834:B 0
24 *970:B1 *847:C1 0
25 *970:B1 *1381:CLK 0
26 *970:B1 *183:10 0
27 *970:B1 *287:20 0
28 *970:B1 *764:72 0
29 *182:7 *832:B 0
30 *182:7 *1162:B 0
31 *182:7 *721:60 0
32 *182:12 *879:A 0
33 *182:12 *879:B 0
34 *182:12 *1512:D 0
35 *182:12 *194:6 0
36 *182:12 *592:262 0
37 *182:12 *721:60 0
38 *182:17 *592:262 0
39 *182:17 *764:22 0
40 *182:19 *847:C1 0
41 *182:33 *847:C1 0
42 *1375:D *958:B 0
43 *1376:D *958:B 0
44 *181:6 *958:B 0
45 *181:19 *958:B 0
46 *181:35 *182:17 0
47 *181:40 *847:A2 0
48 *181:40 *182:17 0
*RES
1 *833:Y *182:7 13.9607 
2 *182:7 *182:12 22.6607 
3 *182:12 *182:17 18.7857 
4 *182:17 *182:19 6.08482 
5 *182:19 *867:B 23.7509 
6 *182:19 *182:33 1.46875 
7 *182:33 *970:B1 26.2464 
8 *182:33 *846:A 9.3 
9 *182:17 *847:A2 22.8893 
10 *182:12 *849:A 13.8 
11 *182:7 *958:B 32.3179 
*END

*D_NET *183 0.000909815
*CONN
*I *846:B I *D sky130_fd_sc_hd__nand2_1
*I *867:C I *D sky130_fd_sc_hd__nand3_1
*I *834:Y O *D sky130_fd_sc_hd__nor2_1
*CAP
1 *846:B 0
2 *867:C 0.00024991
3 *834:Y 0.000204997
4 *183:10 0.000454907
5 *867:C *869:A 0
6 *867:C *764:69 0
7 *183:10 *764:69 0
8 *867:B *867:C 0
9 *970:B1 *183:10 0
*RES
1 *834:Y *183:10 22.9071 
2 *183:10 *867:C 23.7464 
3 *183:10 *846:B 9.3 
*END

*D_NET *184 0.00123005
*CONN
*I *839:B1 I *D sky130_fd_sc_hd__o21ai_0
*I *842:D I *D sky130_fd_sc_hd__or4_1
*I *843:B1 I *D sky130_fd_sc_hd__a21oi_1
*I *835:X O *D sky130_fd_sc_hd__or4_1
*CAP
1 *839:B1 0.00020642
2 *842:D 0.000202142
3 *843:B1 0
4 *835:X 8.32096e-05
5 *184:11 0.000325396
6 *184:5 0.000412884
7 *839:B1 *835:D 0
8 *839:B1 *839:A1 0
9 *839:B1 *839:A2 0
10 *839:B1 *717:20 0
11 *842:D *843:A1 0
12 *842:D *843:A2 0
13 *842:D *967:A1 0
14 *842:D *288:34 0
15 *184:5 *838:A 0
16 *184:5 *838:B 0
17 *184:5 *838:C 0
18 *184:11 *843:A1 0
19 *184:11 *843:A2 0
20 *184:11 *188:15 0
21 *184:11 *192:9 0
*RES
1 *835:X *184:5 11.0679 
2 *184:5 *184:11 11.7857 
3 *184:11 *843:B1 9.3 
4 *184:11 *842:D 13.55 
5 *184:5 *839:B1 13.9964 
*END

*D_NET *185 0.000326849
*CONN
*I *837:A2 I *D sky130_fd_sc_hd__a21boi_0
*I *836:Y O *D sky130_fd_sc_hd__nor2_1
*CAP
1 *837:A2 0.000163425
2 *836:Y 0.000163425
3 *837:A2 *954:C 0
4 *837:A2 *285:7 0
*RES
1 *836:Y *837:A2 22.0107 
*END

*D_NET *186 0.000529882
*CONN
*I *839:A1 I *D sky130_fd_sc_hd__o21ai_0
*I *837:Y O *D sky130_fd_sc_hd__a21boi_0
*CAP
1 *839:A1 0.000264941
2 *837:Y 0.000264941
3 *839:A1 *837:A1 0
4 *839:A1 *837:B1_N 0
5 *839:A1 *961:SLEEP 0
6 *839:A1 *285:23 0
7 *839:A1 *717:8 0
8 *839:A1 *717:20 0
9 *839:A1 *717:33 0
10 *839:B1 *839:A1 0
*RES
1 *837:Y *839:A1 33.2786 
*END

*D_NET *187 0.000131766
*CONN
*I *839:A2 I *D sky130_fd_sc_hd__o21ai_0
*I *838:X O *D sky130_fd_sc_hd__or4_1
*CAP
1 *839:A2 6.58832e-05
2 *838:X 6.58832e-05
3 *839:B1 *839:A2 0
*RES
1 *838:X *839:A2 19.975 
*END

*D_NET *188 0.00282663
*CONN
*I *850:A I *D sky130_fd_sc_hd__nand2_1
*I *840:B I *D sky130_fd_sc_hd__nor2_1
*I *851:B I *D sky130_fd_sc_hd__nand3_1
*I *839:Y O *D sky130_fd_sc_hd__o21ai_0
*CAP
1 *850:A 0
2 *840:B 1.46526e-05
3 *851:B 0.000105991
4 *839:Y 0.00117695
5 *188:19 0.000236367
6 *188:15 0.00129267
7 *851:B *851:A 0
8 *851:B *854:B1 0
9 *851:B *878:A 0
10 *851:B *199:14 0
11 *188:15 *843:A2 0
12 *188:15 *878:A 0
13 *188:15 *969:A2 0
14 *188:15 *1381:RESET_B 0
15 *188:15 *197:11 0
16 *188:15 *288:11 0
17 *188:15 *592:222 0
18 *188:15 *592:228 0
19 *188:15 *716:15 0
20 *188:15 *718:8 0
21 *188:15 *719:8 0
22 *188:19 *854:B1 0
23 *188:19 *878:A 0
24 *188:19 *197:11 0
25 *878:B *188:15 0
26 *1380:D *188:15 0
27 *181:61 *188:15 0
28 *184:11 *188:15 0
*RES
1 *839:Y *188:15 39.954 
2 *188:15 *188:19 2.60714 
3 *188:19 *851:B 11.8357 
4 *188:19 *840:B 9.72857 
5 *188:15 *850:A 9.3 
*END

*D_NET *189 0.00189402
*CONN
*I *847:B1 I *D sky130_fd_sc_hd__a222oi_1
*I *853:A1 I *D sky130_fd_sc_hd__o21ai_0
*I *855:A I *D sky130_fd_sc_hd__nor2_1
*I *868:B I *D sky130_fd_sc_hd__nand2_1
*I *840:Y O *D sky130_fd_sc_hd__nor2_1
*CAP
1 *847:B1 0.000138289
2 *853:A1 0
3 *855:A 0.000112474
4 *868:B 4.62038e-05
5 *840:Y 0.000177732
6 *189:17 0.00022071
7 *189:16 0.000472313
8 *189:9 0.000726301
9 *847:B1 *847:C2 0
10 *847:B1 *848:B 0
11 *847:B1 *1374:RESET_B 0
12 *855:A *855:B 0
13 *855:A *764:62 0
14 *855:A *764:64 0
15 *868:B *853:A2 0
16 *868:B *853:B1 0
17 *868:B *869:B 0
18 *189:9 *851:C 0
19 *189:9 *200:14 0
20 *189:16 *868:A 0
21 *189:16 *877:C 0
22 *189:16 *1374:RESET_B 0
23 *189:16 *199:14 0
24 *189:16 *200:14 0
25 *189:16 *764:64 0
*RES
1 *840:Y *189:9 18.3418 
2 *189:9 *189:16 10.9047 
3 *189:16 *189:17 1.35714 
4 *189:17 *868:B 10.2643 
5 *189:17 *855:A 20.8536 
6 *189:16 *853:A1 9.3 
7 *189:9 *847:B1 20.268 
*END

*D_NET *190 0.000902781
*CONN
*I *961:A I *D sky130_fd_sc_hd__lpflow_inputiso1p_1
*I *843:A2 I *D sky130_fd_sc_hd__a21oi_1
*I *841:Y O *D sky130_fd_sc_hd__a21oi_1
*CAP
1 *961:A 0
2 *843:A2 0.00025588
3 *841:Y 0.000195511
4 *190:7 0.000451391
5 *843:A2 *288:34 0
6 *843:A2 *717:8 0
7 *843:A2 *717:20 0
8 *190:7 *962:A2 0
9 *842:D *843:A2 0
10 *184:11 *843:A2 0
11 *188:15 *843:A2 0
*RES
1 *841:Y *190:7 13.4429 
2 *190:7 *843:A2 23.8714 
3 *190:7 *961:A 9.3 
*END

*D_NET *191 0.00167079
*CONN
*I *845:C I *D sky130_fd_sc_hd__nand4_1
*I *844:B I *D sky130_fd_sc_hd__nand3_1
*I *842:X O *D sky130_fd_sc_hd__or4_1
*CAP
1 *845:C 0.000146098
2 *844:B 0
3 *842:X 0.000689295
4 *191:11 0.000835393
5 *845:C *192:9 0
6 *845:C *192:11 0
7 *191:11 *842:A 0
8 *191:11 *842:C 0
9 *191:11 *962:A2 0
10 *191:11 *288:34 0
11 *191:11 *715:10 0
12 *191:11 *717:8 0
13 *181:25 *191:11 0
14 *181:27 *845:C 0
*RES
1 *842:X *191:11 33.425 
2 *191:11 *844:B 9.3 
3 *191:11 *845:C 12.3179 
*END

*D_NET *192 0.00139768
*CONN
*I *844:C I *D sky130_fd_sc_hd__nand3_1
*I *845:D I *D sky130_fd_sc_hd__nand4_1
*I *849:B I *D sky130_fd_sc_hd__nor2_1
*I *843:Y O *D sky130_fd_sc_hd__a21oi_1
*CAP
1 *844:C 0
2 *845:D 1.54013e-05
3 *849:B 8.04288e-05
4 *843:Y 0.000498622
5 *192:11 0.000200216
6 *192:9 0.000603008
7 *849:B *852:B 0
8 *849:B *879:B 0
9 *849:B *197:11 0
10 *192:9 *843:A1 0
11 *192:9 *1379:RESET_B 0
12 *192:9 *592:262 0
13 *192:9 *764:22 0
14 *845:C *192:9 0
15 *845:C *192:11 0
16 *1379:D *192:9 0
17 *181:25 *192:9 0
18 *181:27 *192:9 0
19 *181:27 *192:11 0
20 *181:35 *192:9 0
21 *184:11 *192:9 0
*RES
1 *843:Y *192:9 29.5857 
2 *192:9 *192:11 2.17857 
3 *192:11 *849:B 11.0857 
4 *192:11 *845:D 9.72857 
5 *192:9 *844:C 9.3 
*END

*D_NET *193 0.000593804
*CONN
*I *852:B I *D sky130_fd_sc_hd__nand2_1
*I *844:Y O *D sky130_fd_sc_hd__nand3_1
*CAP
1 *852:B 0.000296902
2 *844:Y 0.000296902
3 *852:B *878:A 0
4 *852:B *197:11 0
5 *849:B *852:B 0
6 *181:27 *852:B 0
*RES
1 *844:Y *852:B 24.7964 
*END

*D_NET *194 0.00123003
*CONN
*I *879:A I *D sky130_fd_sc_hd__nand2_1
*I *848:A I *D sky130_fd_sc_hd__nand2_1
*I *845:Y O *D sky130_fd_sc_hd__nand4_1
*CAP
1 *879:A 0.000108647
2 *848:A 0.00032712
3 *845:Y 0.00017925
4 *194:6 0.000615017
5 *848:A *592:222 0
6 *848:A *709:7 0
7 *848:A *764:12 0
8 *848:A *764:17 0
9 *879:A *879:B 0
10 *194:6 *764:22 0
11 *1371:D *848:A 0
12 *181:35 *194:6 0
13 *182:12 *879:A 0
14 *182:12 *194:6 0
*RES
1 *845:Y *194:6 17.8714 
2 *194:6 *848:A 29.7107 
3 *194:6 *879:A 16.2821 
*END

*D_NET *195 0.000858417
*CONN
*I *847:C1 I *D sky130_fd_sc_hd__a222oi_1
*I *846:Y O *D sky130_fd_sc_hd__nand2_1
*CAP
1 *847:C1 0.000429209
2 *846:Y 0.000429209
3 *847:C1 *847:C2 0
4 *847:C1 *1374:RESET_B 0
5 *847:C1 *199:14 0
6 *847:A2 *847:C1 0
7 *970:B1 *847:C1 0
8 *182:19 *847:C1 0
9 *182:33 *847:C1 0
*RES
1 *846:Y *847:C1 37.0107 
*END

*D_NET *196 0.00104771
*CONN
*I *848:B I *D sky130_fd_sc_hd__nand2_1
*I *847:Y O *D sky130_fd_sc_hd__a222oi_1
*CAP
1 *848:B 0.000523857
2 *847:Y 0.000523857
3 *848:B *847:A1 0
4 *848:B *854:B2 0
5 *848:B *709:7 0
6 *847:B1 *848:B 0
7 *854:A2 *848:B 0
*RES
1 *847:Y *848:B 29.7786 
*END

*D_NET *197 0.00140561
*CONN
*I *850:B I *D sky130_fd_sc_hd__nand2_1
*I *851:C I *D sky130_fd_sc_hd__nand3_1
*I *849:Y O *D sky130_fd_sc_hd__nor2_1
*CAP
1 *850:B 0
2 *851:C 0.000224935
3 *849:Y 0.000477867
4 *197:11 0.000702803
5 *851:C *878:A 0
6 *851:C *200:14 0
7 *197:11 *851:A 0
8 *197:11 *878:A 0
9 *197:11 *879:B 0
10 *849:B *197:11 0
11 *852:B *197:11 0
12 *878:B *197:11 0
13 *188:15 *197:11 0
14 *188:19 *197:11 0
15 *189:9 *851:C 0
*RES
1 *849:Y *197:11 19.3357 
2 *197:11 *851:C 26.8328 
3 *197:11 *850:B 9.3 
*END

*D_NET *198 0.000340456
*CONN
*I *854:B1 I *D sky130_fd_sc_hd__a22oi_1
*I *850:Y O *D sky130_fd_sc_hd__nand2_1
*CAP
1 *854:B1 0.000170228
2 *850:Y 0.000170228
3 *854:B1 *711:10 0
4 *851:B *854:B1 0
5 *854:A2 *854:B1 0
6 *188:19 *854:B1 0
*RES
1 *850:Y *854:B1 31.2429 
*END

*D_NET *199 0.00100129
*CONN
*I *877:A I *D sky130_fd_sc_hd__nand3_1
*I *853:B1 I *D sky130_fd_sc_hd__o21ai_0
*I *851:Y O *D sky130_fd_sc_hd__nand3_1
*CAP
1 *877:A 0
2 *853:B1 0.000105242
3 *851:Y 0.000395405
4 *199:14 0.000500647
5 *853:B1 *853:A2 0
6 *853:B1 *877:C 0
7 *853:B1 *579:12 0
8 *199:14 *867:A 0
9 *199:14 *877:C 0
10 *199:14 *1374:RESET_B 0
11 *199:14 *200:14 0
12 *199:14 *712:5 0
13 *199:14 *764:64 0
14 *199:14 *764:69 0
15 *847:C1 *199:14 0
16 *851:B *199:14 0
17 *868:B *853:B1 0
18 *189:16 *199:14 0
*RES
1 *851:Y *199:14 26.7643 
2 *199:14 *853:B1 11.4964 
3 *199:14 *877:A 9.3 
*END

*D_NET *200 0.00203346
*CONN
*I *877:B I *D sky130_fd_sc_hd__nand3_1
*I *853:A2 I *D sky130_fd_sc_hd__o21ai_0
*I *852:Y O *D sky130_fd_sc_hd__nand2_1
*CAP
1 *877:B 0
2 *853:A2 0.000149735
3 *852:Y 0.000866993
4 *200:14 0.00101673
5 *853:A2 *877:C 0
6 *200:14 *845:A 0
7 *200:14 *847:B2 0
8 *200:14 *868:A 0
9 *200:14 *592:254 0
10 *200:14 *592:262 0
11 *200:14 *710:29 0
12 *200:14 *764:17 0
13 *851:C *200:14 0
14 *853:B1 *853:A2 0
15 *868:B *853:A2 0
16 *878:B *200:14 0
17 *1372:D *853:A2 0
18 *189:9 *200:14 0
19 *189:16 *200:14 0
20 *199:14 *200:14 0
*RES
1 *852:Y *200:14 30.7435 
2 *200:14 *853:A2 12.6393 
3 *200:14 *877:B 9.3 
*END

*D_NET *201 0.00119554
*CONN
*I *855:B I *D sky130_fd_sc_hd__nor2_1
*I *854:Y O *D sky130_fd_sc_hd__a22oi_1
*CAP
1 *855:B 0.000597771
2 *854:Y 0.000597771
3 *855:B *847:B2 0
4 *855:B *868:A 0
5 *855:B *592:222 0
6 *855:B *710:29 0
7 *855:B *711:10 0
8 *855:A *855:B 0
*RES
1 *854:Y *855:B 38.5716 
*END

*D_NET *202 0.000222604
*CONN
*I *857:A I *D sky130_fd_sc_hd__clkinv_1
*I *856:X O *D sky130_fd_sc_hd__and3_1
*CAP
1 *857:A 0.000111302
2 *856:X 0.000111302
3 *857:A *1497:CLK 0
4 *173:55 *857:A 0
*RES
1 *856:X *857:A 30.0821 
*END

*D_NET *203 0.0024221
*CONN
*I *987:B1 I *D sky130_fd_sc_hd__a221oi_1
*I *858:B I *D sky130_fd_sc_hd__nor2_1
*I *866:A2 I *D sky130_fd_sc_hd__o21ai_0
*I *857:Y O *D sky130_fd_sc_hd__clkinv_1
*CAP
1 *987:B1 8.4707e-05
2 *858:B 0.0001114
3 *866:A2 7.23016e-05
4 *857:Y 0.000183104
5 *203:18 0.000955644
6 *203:5 0.00101494
7 *858:B *981:B1 0
8 *858:B *982:A1 0
9 *858:B *207:11 0
10 *987:B1 *987:B2 0
11 *203:18 *981:B1 0
12 *203:18 *983:B 0
13 *203:18 *204:8 0
14 *203:18 *210:5 0
15 *203:18 *592:14 0
16 *203:18 *592:28 0
17 *203:18 *596:11 0
18 *858:A *858:B 0
19 *1497:D *203:5 0
20 *1497:D *203:18 0
*RES
1 *857:Y *203:5 13.1214 
2 *203:5 *866:A2 19.9429 
3 *203:5 *203:18 20.7143 
4 *203:18 *858:B 16.2821 
5 *203:18 *987:B1 15.5679 
*END

*D_NET *204 0.00160382
*CONN
*I *983:A I *D sky130_fd_sc_hd__nor2_1
*I *995:B1 I *D sky130_fd_sc_hd__o21ai_0
*I *858:Y O *D sky130_fd_sc_hd__nor2_1
*CAP
1 *983:A 0.000103035
2 *995:B1 0.000443031
3 *858:Y 0.000255842
4 *204:8 0.000801908
5 *983:A *983:B 0
6 *983:A *989:B 0
7 *983:A *601:18 0
8 *995:B1 *588:10 0
9 *204:8 *988:A2 0
10 *204:8 *989:B 0
11 *204:8 *207:11 0
12 *204:8 *599:21 0
13 *204:8 *599:26 0
14 *204:8 *600:13 0
15 *204:8 *600:23 0
16 *178:14 *204:8 0
17 *203:18 *204:8 0
*RES
1 *858:Y *204:8 19.3089 
2 *204:8 *995:B1 22.4572 
3 *204:8 *983:A 16.2018 
*END

*D_NET *205 0.00197934
*CONN
*I *981:B1 I *D sky130_fd_sc_hd__o21ai_0
*I *860:B I *D sky130_fd_sc_hd__nor2_1
*I *862:B I *D sky130_fd_sc_hd__nor3_1
*I *859:Y O *D sky130_fd_sc_hd__nor2_1
*CAP
1 *981:B1 0.000162772
2 *860:B 0.00016428
3 *862:B 3.22476e-05
4 *859:Y 0.000376903
5 *205:10 0.000449994
6 *205:5 0.000793141
7 *860:B *860:A 0
8 *860:B *862:C 0
9 *860:B *208:7 0
10 *862:B *863:A 0
11 *862:B *981:A1 0
12 *862:B *210:44 0
13 *981:B1 *980:A 0
14 *981:B1 *982:A1 0
15 *981:B1 *210:44 0
16 *981:B1 *302:9 0
17 *205:5 *859:B 0
18 *205:5 *983:B 0
19 *205:5 *987:A1 0
20 *205:5 *987:B2 0
21 *205:5 *988:B1 0
22 *205:5 *989:B 0
23 *205:5 *302:9 0
24 *205:10 *863:A 0
25 *205:10 *723:17 0
26 *858:B *981:B1 0
27 *203:18 *981:B1 0
*RES
1 *859:Y *205:5 17.2286 
2 *205:5 *205:10 10.0536 
3 *205:10 *862:B 14.5321 
4 *205:10 *860:B 17.2286 
5 *205:5 *981:B1 21.9964 
*END

*D_NET *206 0.00122146
*CONN
*I *874:A3 I *D sky130_fd_sc_hd__a32oi_1
*I *873:A1 I *D sky130_fd_sc_hd__o21ai_0
*I *860:Y O *D sky130_fd_sc_hd__nor2_1
*CAP
1 *874:A3 0
2 *873:A1 0.0002073
3 *860:Y 0.000403428
4 *206:9 0.000610728
5 *873:A1 *874:A2 0
6 *873:A1 *1497:CLK 0
7 *873:A1 *1499:CLK 0
8 *873:A1 *597:23 0
9 *206:9 *874:A1 0
10 *206:9 *208:7 0
11 *206:9 *592:34 0
*RES
1 *860:Y *206:9 17.7821 
2 *206:9 *873:A1 22.8714 
3 *206:9 *874:A3 9.3 
*END

*D_NET *207 0.00108836
*CONN
*I *980:B I *D sky130_fd_sc_hd__nand2_1
*I *862:C I *D sky130_fd_sc_hd__nor3_1
*I *861:Y O *D sky130_fd_sc_hd__nor3_1
*CAP
1 *980:B 0
2 *862:C 0.000161927
3 *861:Y 0.000382251
4 *207:11 0.000544178
5 *862:C *860:A 0
6 *862:C *862:A 0
7 *862:C *981:A2 0
8 *207:11 *860:A 0
9 *207:11 *980:A 0
10 *207:11 *981:A1 0
11 *207:11 *981:A2 0
12 *207:11 *982:A1 0
13 *207:11 *599:21 0
14 *207:11 *599:26 0
15 *858:B *207:11 0
16 *860:B *862:C 0
17 *204:8 *207:11 0
*RES
1 *861:Y *207:11 17.5857 
2 *207:11 *862:C 12.7107 
3 *207:11 *980:B 9.3 
*END

*D_NET *208 0.000835113
*CONN
*I *865:A3 I *D sky130_fd_sc_hd__a32oi_1
*I *875:A1 I *D sky130_fd_sc_hd__o21ai_0
*I *862:Y O *D sky130_fd_sc_hd__nor3_1
*CAP
1 *865:A3 0.000123052
2 *875:A1 0.0001114
3 *862:Y 0.000183104
4 *208:7 0.000417557
5 *865:A3 *860:A 0
6 *865:A3 *863:A 0
7 *865:A3 *865:A2 0
8 *865:A3 *210:21 0
9 *875:A1 *863:A 0
10 *875:A1 *865:A2 0
11 *875:A1 *981:A2 0
12 *875:A1 *597:13 0
13 *875:A1 *598:9 0
14 *208:7 *981:A2 0
15 *860:B *208:7 0
16 *206:9 *208:7 0
*RES
1 *862:Y *208:7 17.6214 
2 *208:7 *875:A1 16.2821 
3 *208:7 *865:A3 16.6571 
*END

*D_NET *209 0.000210484
*CONN
*I *875:A2 I *D sky130_fd_sc_hd__o21ai_0
*I *863:Y O *D sky130_fd_sc_hd__nand2_1
*CAP
1 *875:A2 0.000105242
2 *863:Y 0.000105242
3 *875:A2 *863:B 0
*RES
1 *863:Y *875:A2 20.7964 
*END

*D_NET *210 0.006694
*CONN
*I *994:B I *D sky130_fd_sc_hd__nand2_1
*I *991:B I *D sky130_fd_sc_hd__nand2_1
*I *986:B I *D sky130_fd_sc_hd__nand2_1
*I *984:B I *D sky130_fd_sc_hd__nand2_1
*I *865:B1 I *D sky130_fd_sc_hd__a32oi_1
*I *975:A2 I *D sky130_fd_sc_hd__a22o_1
*I *998:A2 I *D sky130_fd_sc_hd__a22o_1
*I *864:X O *D sky130_fd_sc_hd__and2_0
*CAP
1 *994:B 6.20329e-05
2 *991:B 0.000318617
3 *986:B 0
4 *984:B 0
5 *865:B1 0
6 *975:A2 8.96642e-05
7 *998:A2 1.21912e-05
8 *864:X 4.23535e-05
9 *210:63 0.000538058
10 *210:60 0.000748432
11 *210:44 0.0012265
12 *210:21 0.00107887
13 *210:13 0.0013762
14 *210:5 0.00120108
15 *975:A2 *975:B1 0
16 *975:A2 *998:B1 0
17 *975:A2 *1496:CLK 0
18 *991:B *991:A 0
19 *991:B *992:B 0
20 *991:B *993:B1 0
21 *991:B *995:A2 0
22 *991:B *600:52 0
23 *991:B *600:62 0
24 *991:B *601:9 0
25 *991:B *601:11 0
26 *994:B *599:11 0
27 *998:A2 *998:B1 0
28 *210:13 *863:A 0
29 *210:13 *592:14 0
30 *210:13 *592:28 0
31 *210:21 *865:A2 0
32 *210:21 *872:A 0
33 *210:21 *875:B1 0
34 *210:21 *974:B 0
35 *210:21 *998:B1 0
36 *210:21 *592:34 0
37 *210:21 *592:57 0
38 *210:21 *592:80 0
39 *210:21 *596:11 0
40 *210:21 *723:40 0
41 *210:44 *980:A 0
42 *210:44 *981:A1 0
43 *210:44 *302:9 0
44 *210:44 *723:17 0
45 *210:60 *985:B1 0
46 *210:60 *599:11 0
47 *210:63 *989:A 0
48 *210:63 *995:A2 0
49 *210:63 *996:B 0
50 *210:63 *600:52 0
51 *210:63 *602:10 0
52 *862:B *210:44 0
53 *865:A3 *210:21 0
54 *981:B1 *210:44 0
55 *1385:D *210:60 0
56 *1389:D *975:A2 0
57 *173:55 *210:21 0
58 *178:14 *210:21 0
59 *203:18 *210:5 0
*RES
1 *864:X *210:5 10.2464 
2 *210:5 *210:13 17.4643 
3 *210:13 *210:21 16.8677 
4 *210:21 *998:A2 14.0768 
5 *210:21 *975:A2 15.8982 
6 *210:13 *865:B1 9.3 
7 *210:5 *210:44 25.375 
8 *210:44 *984:B 9.3 
9 *210:44 *210:60 10.1786 
10 *210:60 *210:63 9.48214 
11 *210:63 *986:B 13.8 
12 *210:63 *991:B 20.8714 
13 *210:60 *994:B 10.6571 
*END

*D_NET *211 0.000520569
*CONN
*I *866:B1 I *D sky130_fd_sc_hd__o21ai_0
*I *865:Y O *D sky130_fd_sc_hd__a32oi_1
*CAP
1 *866:B1 0.000260285
2 *865:Y 0.000260285
3 *866:B1 *592:28 0
4 *866:B1 *596:11 0
5 *866:B1 *596:13 0
6 *1497:D *866:B1 0
7 *173:55 *866:B1 0
*RES
1 *865:Y *866:B1 33.35 
*END

*D_NET *212 0.000645368
*CONN
*I *877:C I *D sky130_fd_sc_hd__nand3_1
*I *869:A I *D sky130_fd_sc_hd__nand2_1
*I *867:Y O *D sky130_fd_sc_hd__nand3_1
*CAP
1 *877:C 0.000205729
2 *869:A 0.000116955
3 *867:Y 0
4 *212:4 0.000322684
5 *869:A *869:B 0
6 *869:A *764:64 0
7 *877:C *867:A 0
8 *853:A2 *877:C 0
9 *853:B1 *877:C 0
10 *867:C *869:A 0
11 *1374:D *869:A 0
12 *1374:D *877:C 0
13 *189:16 *877:C 0
14 *199:14 *877:C 0
*RES
1 *867:Y *212:4 9.3 
2 *212:4 *869:A 20.8 
3 *212:4 *877:C 22.7643 
*END

*D_NET *213 0.000392853
*CONN
*I *869:B I *D sky130_fd_sc_hd__nand2_1
*I *868:Y O *D sky130_fd_sc_hd__nand2_1
*CAP
1 *869:B 0.000196426
2 *868:Y 0.000196426
3 *869:B *764:64 0
4 *868:B *869:B 0
5 *869:A *869:B 0
*RES
1 *868:Y *869:B 31.8321 
*END

*D_NET *214 0.00131352
*CONN
*I *871:B I *D sky130_fd_sc_hd__nand2_1
*I *975:B1 I *D sky130_fd_sc_hd__a22o_1
*I *870:Y O *D sky130_fd_sc_hd__nor2_1
*CAP
1 *871:B 0.000347812
2 *975:B1 0.000308948
3 *870:Y 0
4 *214:4 0.00065676
5 *871:B *874:B2 0
6 *975:B1 *975:B2 0
7 *975:B1 *998:B1 0
8 *827:B2 *871:B 0
9 *874:B1 *871:B 0
10 *975:A2 *975:B1 0
11 *174:17 *871:B 0
12 *174:17 *975:B1 0
*RES
1 *870:Y *214:4 9.3 
2 *214:4 *975:B1 24.9786 
3 *214:4 *871:B 16.6214 
*END

*D_NET *215 0.000432133
*CONN
*I *873:B1 I *D sky130_fd_sc_hd__o21ai_0
*I *871:Y O *D sky130_fd_sc_hd__nand2_1
*CAP
1 *873:B1 0.000216066
2 *871:Y 0.000216066
3 *873:B1 *874:B2 0
4 *874:B1 *873:B1 0
*RES
1 *871:Y *873:B1 32.2429 
*END

*D_NET *216 0.000280766
*CONN
*I *873:A2 I *D sky130_fd_sc_hd__o21ai_0
*I *872:Y O *D sky130_fd_sc_hd__nand2_1
*CAP
1 *873:A2 0.000140383
2 *872:Y 0.000140383
3 *873:A2 *598:31 0
4 *873:A2 *779:20 0
5 *178:14 *873:A2 0
*RES
1 *872:Y *873:A2 30.6 
*END

*D_NET *217 0.00120923
*CONN
*I *875:B1 I *D sky130_fd_sc_hd__o21ai_0
*I *874:Y O *D sky130_fd_sc_hd__a32oi_1
*CAP
1 *875:B1 0.000604613
2 *874:Y 0.000604613
3 *875:B1 *863:A 0
4 *875:B1 *1497:CLK 0
5 *875:B1 *597:12 0
6 *856:C *875:B1 0
7 *173:55 *875:B1 0
8 *178:14 *875:B1 0
9 *210:21 *875:B1 0
*RES
1 *874:Y *875:B1 39.1067 
*END

*D_NET *218 0.000678395
*CONN
*I *879:B I *D sky130_fd_sc_hd__nand2_1
*I *878:Y O *D sky130_fd_sc_hd__nand2_1
*CAP
1 *879:B 0.000339197
2 *878:Y 0.000339197
3 *879:B *592:254 0
4 *879:B *592:262 0
5 *849:B *879:B 0
6 *879:A *879:B 0
7 *182:12 *879:B 0
8 *197:11 *879:B 0
*RES
1 *878:Y *879:B 34.975 
*END

*D_NET *219 0.00696947
*CONN
*I *904:A I *D sky130_fd_sc_hd__nor2_1
*I *911:A I *D sky130_fd_sc_hd__nor2_1
*I *932:B1 I *D sky130_fd_sc_hd__a31oi_1
*I *918:B1 I *D sky130_fd_sc_hd__a31oi_1
*I *925:B1 I *D sky130_fd_sc_hd__a31oi_1
*I *939:B1 I *D sky130_fd_sc_hd__a31oi_1
*I *953:B1 I *D sky130_fd_sc_hd__a31oi_1
*I *946:A I *D sky130_fd_sc_hd__nor2_1
*I *880:Y O *D sky130_fd_sc_hd__nand2b_1
*CAP
1 *904:A 0.000299369
2 *911:A 0
3 *932:B1 0
4 *918:B1 0.000330374
5 *925:B1 0
6 *939:B1 0
7 *953:B1 0.000230231
8 *946:A 0.000314483
9 *880:Y 0
10 *219:84 0.000524185
11 *219:35 0.000403281
12 *219:29 0.000291341
13 *219:24 0.000641265
14 *219:20 0.00158556
15 *219:17 0.00182634
16 *219:4 0.000523042
17 *904:A *975:A1 0
18 *904:A *1389:CLK 0
19 *904:A *248:13 0
20 *918:B1 uo_out[2] 0
21 *918:B1 *918:A1 0
22 *918:B1 *918:A3 0
23 *918:B1 *944:B 0
24 *918:B1 *234:27 0
25 *918:B1 *605:47 0
26 *946:A uio_out[5] 0
27 *946:A *824:B 0
28 *946:A *278:11 0
29 *946:A *721:26 0
30 *946:A *750:32 0
31 *953:B1 *925:A1 0
32 *953:B1 *925:A3 0
33 *953:B1 *932:A3 0
34 *953:B1 *1253:A 0
35 *953:B1 *231:50 0
36 *953:B1 *231:67 0
37 *953:B1 *232:37 0
38 *219:17 *824:B 0
39 *219:17 *750:32 0
40 *219:20 *913:B2 0
41 *219:20 *928:B2 0
42 *219:20 *932:A2 0
43 *219:20 *941:B2 0
44 *219:20 *979:A2 0
45 *219:20 *979:B1 0
46 *219:20 *1004:A 0
47 *219:20 *1310:B 0
48 *219:20 *1311:A 0
49 *219:20 *1311:B 0
50 *219:20 *1323:A 0
51 *219:20 *1324:A 0
52 *219:20 *1326:A1 0
53 *219:20 *1326:B1 0
54 *219:20 *1391:CLK 0
55 *219:20 *1391:SET_B 0
56 *219:20 *1485:CLK 0
57 *219:20 *603:74 0
58 *219:20 *603:81 0
59 *219:24 *913:B2 0
60 *219:24 *932:A3 0
61 *219:24 *228:35 0
62 *219:84 *248:13 0
63 *1383:D *904:A 0
64 *1391:D *219:20 0
65 *1480:D *219:20 0
66 *1484:D *219:20 0
67 *1485:D *219:20 0
68 *176:12 *904:A 0
69 *176:12 *219:17 0
70 *176:12 *219:84 0
*RES
1 *880:Y *219:4 9.3 
2 *219:4 *946:A 24.9964 
3 *219:4 *219:17 4.44643 
4 *219:17 *219:20 36.1964 
5 *219:20 *219:24 8.875 
6 *219:24 *219:29 2.625 
7 *219:29 *219:35 3.85714 
8 *219:35 *953:B1 23.3357 
9 *219:35 *939:B1 9.3 
10 *219:29 *925:B1 9.3 
11 *219:24 *918:B1 30.9189 
12 *219:20 *932:B1 13.8 
13 *219:17 *219:84 4.78571 
14 *219:84 *911:A 9.3 
15 *219:84 *904:A 24.8179 
*END

*D_NET *220 0.00167243
*CONN
*I *891:C I *D sky130_fd_sc_hd__nor3_1
*I *883:A I *D sky130_fd_sc_hd__nor2_1
*I *885:A I *D sky130_fd_sc_hd__nor2_1
*I *894:A I *D sky130_fd_sc_hd__nor2_1
*I *881:Y O *D sky130_fd_sc_hd__nand2b_1
*CAP
1 *891:C 2.56688e-05
2 *883:A 4.56186e-05
3 *885:A 0.00035404
4 *894:A 7.96101e-05
5 *881:Y 0
6 *220:18 0.000551746
7 *220:6 0.000410888
8 *220:4 0.00020486
9 *883:A *1041:C 0
10 *883:A *225:15 0
11 *883:A *639:18 0
12 *885:A *890:B 0
13 *885:A *895:A 0
14 *885:A *221:23 0
15 *885:A *225:15 0
16 *885:A *226:23 0
17 *885:A *226:25 0
18 *885:A *269:20 0
19 *891:C *891:B 0
20 *891:C *927:B2 0
21 *894:A *1039:D 0
22 *894:A *620:41 0
23 *220:6 *225:6 0
24 *220:6 *225:15 0
25 *220:6 *620:41 0
26 *220:6 *726:18 0
27 *220:18 *888:B 0
28 *220:18 *894:B 0
29 *220:18 *225:15 0
30 *220:18 *233:11 0
*RES
1 *881:Y *220:4 9.3 
2 *220:4 *220:6 8.57143 
3 *220:6 *894:A 15.7821 
4 *220:6 *220:18 7.91071 
5 *220:18 *885:A 25.7464 
6 *220:18 *883:A 19.3357 
7 *220:4 *891:C 9.83571 
*END

*D_NET *221 0.00100291
*CONN
*I *896:C I *D sky130_fd_sc_hd__nor3_1
*I *890:A I *D sky130_fd_sc_hd__nor2_1
*I *883:B I *D sky130_fd_sc_hd__nor2_1
*I *882:Y O *D sky130_fd_sc_hd__nand2b_1
*CAP
1 *896:C 0
2 *890:A 0.000118504
3 *883:B 4.56186e-05
4 *882:Y 8.8214e-05
5 *221:23 0.000367621
6 *221:8 0.000382949
7 *883:B *897:A 0
8 *883:B *1041:C 0
9 *890:A *885:B 0
10 *221:8 *882:B 0
11 *221:8 *897:A 0
12 *221:8 *726:18 0
13 *221:23 *895:A 0
14 *885:A *221:23 0
*RES
1 *882:Y *221:8 15.7821 
2 *221:8 *883:B 14.8357 
3 *221:8 *221:23 18.8571 
4 *221:23 *890:A 11.925 
5 *221:23 *896:C 9.3 
*END

*D_NET *222 0.00586358
*CONN
*I *903:A2 I *D sky130_fd_sc_hd__a221oi_1
*I *947:B I *D sky130_fd_sc_hd__nand2_1
*I *929:A2 I *D sky130_fd_sc_hd__a222oi_1
*I *923:A2 I *D sky130_fd_sc_hd__a222oi_1
*I *914:A2 I *D sky130_fd_sc_hd__a222oi_1
*I *937:A2 I *D sky130_fd_sc_hd__a222oi_1
*I *908:A2 I *D sky130_fd_sc_hd__a222oi_1
*I *943:A2 I *D sky130_fd_sc_hd__a222oi_1
*I *883:Y O *D sky130_fd_sc_hd__nor2_1
*CAP
1 *903:A2 0.000143745
2 *947:B 2.26741e-05
3 *929:A2 9.59991e-05
4 *923:A2 0.000263452
5 *914:A2 7.01613e-05
6 *937:A2 0.000191082
7 *908:A2 0.000119575
8 *943:A2 6.93057e-05
9 *883:Y 0.000454719
10 *222:65 0.000472691
11 *222:48 0.000435402
12 *222:44 0.000656862
13 *222:30 0.000618062
14 *222:21 0.000430037
15 *222:19 0.000780942
16 *222:14 0.00103887
17 *903:A2 *242:10 0
18 *903:A2 *605:47 0
19 *903:A2 *606:36 0
20 *908:A2 *909:A 0
21 *908:A2 *909:D 0
22 *914:A2 *914:B1 0
23 *914:A2 *231:39 0
24 *923:A2 *917:C1 0
25 *923:A2 *924:A 0
26 *923:A2 *231:39 0
27 *923:A2 *236:57 0
28 *929:A2 *923:A1 0
29 *929:A2 *929:A1 0
30 *937:A2 *914:A1 0
31 *937:A2 *235:49 0
32 *943:A2 *908:B1 0
33 *943:A2 *943:A1 0
34 *222:14 *912:A 0
35 *222:14 *224:33 0
36 *222:14 *234:27 0
37 *222:14 *235:10 0
38 *222:14 *620:41 0
39 *222:19 *900:C2 0
40 *222:19 *902:A 0
41 *222:19 *902:C 0
42 *222:19 *903:A1 0
43 *222:19 *922:B1 0
44 *222:19 *922:C1 0
45 *222:19 *922:C2 0
46 *222:19 *235:10 0
47 *222:19 *236:18 0
48 *222:19 *284:26 0
49 *222:21 *943:A1 0
50 *222:30 *909:A 0
51 *222:30 *909:D 0
52 *222:30 *936:A1 0
53 *222:44 *936:A1 0
54 *222:44 *235:41 0
55 *222:44 *235:83 0
56 *222:48 *235:41 0
57 *222:65 *923:A1 0
58 *222:65 *938:A 0
59 *222:65 *938:B 0
60 *222:65 *939:A3 0
*RES
1 *883:Y *222:14 24.1957 
2 *222:14 *222:19 14.4643 
3 *222:19 *222:21 6.69643 
4 *222:21 *943:A2 10.7464 
5 *222:21 *222:30 5.53571 
6 *222:30 *908:A2 16.4964 
7 *222:30 *222:44 14.0714 
8 *222:44 *222:48 2.19643 
9 *222:48 *937:A2 22.5321 
10 *222:48 *222:65 12.1607 
11 *222:65 *914:A2 10.7643 
12 *222:65 *923:A2 24.0679 
13 *222:44 *929:A2 20.4607 
14 *222:19 *947:B 9.83571 
15 *222:14 *903:A2 16.8 
*END

*D_NET *223 0.00112923
*CONN
*I *893:C I *D sky130_fd_sc_hd__nor3_1
*I *895:A I *D sky130_fd_sc_hd__nor2_1
*I *885:B I *D sky130_fd_sc_hd__nor2_1
*I *884:Y O *D sky130_fd_sc_hd__nand2_1
*CAP
1 *893:C 0.000200697
2 *895:A 0.00018149
3 *885:B 6.43859e-05
4 *884:Y 0
5 *223:9 0.000363918
6 *223:5 0.000318739
7 *893:C *922:B1 0
8 *893:C *941:A1 0
9 *893:C *232:5 0
10 *893:C *727:30 0
11 *893:C *728:30 0
12 *895:A *230:12 0
13 *895:A *269:20 0
14 *223:9 *884:A 0
15 *223:9 *892:C 0
16 *223:9 *901:A2 0
17 *223:9 *269:20 0
18 *223:9 *728:30 0
19 *223:9 *728:41 0
20 *885:A *895:A 0
21 *890:A *885:B 0
22 *221:23 *895:A 0
*RES
1 *884:Y *223:5 13.8 
2 *223:5 *223:9 7.17857 
3 *223:9 *885:B 10.675 
4 *223:9 *895:A 22.4071 
5 *223:5 *893:C 18.2286 
*END

*D_NET *224 0.00705239
*CONN
*I *920:A2 I *D sky130_fd_sc_hd__a222oi_1
*I *915:A2 I *D sky130_fd_sc_hd__a222oi_1
*I *930:A2 I *D sky130_fd_sc_hd__a222oi_1
*I *943:C1 I *D sky130_fd_sc_hd__a222oi_1
*I *908:C1 I *D sky130_fd_sc_hd__a222oi_1
*I *951:A2 I *D sky130_fd_sc_hd__a222oi_1
*I *935:A2 I *D sky130_fd_sc_hd__a22oi_1
*I *901:A2 I *D sky130_fd_sc_hd__a222oi_1
*I *885:Y O *D sky130_fd_sc_hd__nor2_1
*CAP
1 *920:A2 0.000433226
2 *915:A2 9.55433e-05
3 *930:A2 0.000154603
4 *943:C1 0.000148682
5 *908:C1 0.000104386
6 *951:A2 8.77017e-06
7 *935:A2 0
8 *901:A2 0.000128558
9 *885:Y 0.000102889
10 *224:70 0.000523805
11 *224:65 0.000836192
12 *224:63 0.00071097
13 *224:51 0.00100466
14 *224:33 0.00143783
15 *224:20 0.00110529
16 *224:5 0.000256989
17 *901:A2 *901:A1 0
18 *901:A2 *228:19 0
19 *901:A2 *231:9 0
20 *908:C1 *359:31 0
21 *915:A2 *915:A1 0
22 *915:A2 *942:A1 0
23 *915:A2 *634:36 0
24 *920:A2 *920:A1 0
25 *920:A2 *932:A1 0
26 *920:A2 *228:19 0
27 *920:A2 *234:27 0
28 *920:A2 *248:13 0
29 *920:A2 *620:41 0
30 *930:A2 *930:A1 0
31 *943:C1 *942:A1 0
32 *943:C1 *236:49 0
33 *224:20 *229:29 0
34 *224:20 *620:27 0
35 *224:33 *890:B 0
36 *224:33 *922:B1 0
37 *224:33 *922:B2 0
38 *224:33 *935:B1 0
39 *224:33 *229:9 0
40 *224:33 *235:8 0
41 *224:33 *236:18 0
42 *224:33 *269:20 0
43 *224:33 *605:47 0
44 *224:33 *606:36 0
45 *224:51 *935:A1 0
46 *224:51 *951:A1 0
47 *224:51 *1040:A_N 0
48 *224:51 *227:49 0
49 *224:51 *233:11 0
50 *224:51 *359:31 0
51 *224:51 *620:41 0
52 *224:51 *765:141 0
53 *224:63 *898:A1 0
54 *224:63 *943:A1 0
55 *224:63 *950:A1 0
56 *224:63 *951:C2 0
57 *224:63 *634:36 0
58 *224:65 *898:A1 0
59 *224:65 *905:A1 0
60 *224:65 *930:B1 0
61 *224:65 *942:A1 0
62 *224:65 *236:40 0
63 *224:70 *908:B2 0
64 *224:70 *930:B1 0
65 *224:70 *936:A1 0
66 *224:70 *942:A1 0
67 *224:70 *233:67 0
68 *224:70 *236:49 0
69 *222:14 *224:33 0
70 *223:9 *901:A2 0
*RES
1 *885:Y *224:5 11.4786 
2 *224:5 *901:A2 12.1393 
3 *224:5 *224:20 5.08036 
4 *224:20 *224:33 18.692 
5 *224:33 *935:A2 9.3 
6 *224:33 *224:51 26.5893 
7 *224:51 *951:A2 9.51429 
8 *224:51 *224:63 9.41746 
9 *224:63 *224:65 1.48833 
10 *224:65 *224:70 5.13366 
11 *224:70 *908:C1 15.9786 
12 *224:70 *943:C1 17.1929 
13 *224:65 *930:A2 21.027 
14 *224:63 *915:A2 19.3261 
15 *224:20 *920:A2 22.5994 
*END

*D_NET *225 0.00112692
*CONN
*I *892:C I *D sky130_fd_sc_hd__nor3_1
*I *894:B I *D sky130_fd_sc_hd__nor2_1
*I *888:A I *D sky130_fd_sc_hd__nor2_1
*I *886:Y O *D sky130_fd_sc_hd__nand2b_1
*CAP
1 *892:C 0.000181821
2 *894:B 2.26741e-05
3 *888:A 0
4 *886:Y 0.000149696
5 *225:15 0.000231942
6 *225:6 0.000540784
7 *892:C *892:A 0
8 *894:B *233:11 0
9 *225:6 *228:8 0
10 *225:6 *725:36 0
11 *225:15 *888:B 0
12 *225:15 *1041:C 0
13 *225:15 *227:13 0
14 *225:15 *639:18 0
15 *225:15 *725:36 0
16 *883:A *225:15 0
17 *885:A *225:15 0
18 *220:6 *225:6 0
19 *220:6 *225:15 0
20 *220:18 *894:B 0
21 *220:18 *225:15 0
22 *223:9 *892:C 0
*RES
1 *886:Y *225:6 17.2643 
2 *225:6 *225:15 9.16071 
3 *225:15 *888:A 9.3 
4 *225:15 *894:B 9.83571 
5 *225:6 *892:C 17.5321 
*END

*D_NET *226 0.0019438
*CONN
*I *888:B I *D sky130_fd_sc_hd__nor2_1
*I *897:C I *D sky130_fd_sc_hd__nor3_1
*I *895:B I *D sky130_fd_sc_hd__nor2_1
*I *890:B I *D sky130_fd_sc_hd__nor2_1
*I *887:Y O *D sky130_fd_sc_hd__nand2b_1
*CAP
1 *888:B 0.000114654
2 *897:C 1.28237e-05
3 *895:B 1.79788e-05
4 *890:B 0.000216821
5 *887:Y 0.000465875
6 *226:25 0.000336191
7 *226:23 0.000156569
8 *226:22 0.000622883
9 *888:B *897:B 0
10 *888:B *227:13 0
11 *890:B *897:B 0
12 *890:B *229:9 0
13 *897:C *897:B 0
14 *226:22 *884:A 0
15 *226:22 *897:A 0
16 *226:22 *927:B1 0
17 *226:22 *927:C1 0
18 *226:22 *932:A1 0
19 *226:22 *230:12 0
20 *226:22 *727:30 0
21 *226:22 *765:125 0
22 *226:23 *897:B 0
23 *226:25 *897:B 0
24 *885:A *890:B 0
25 *885:A *226:23 0
26 *885:A *226:25 0
27 *220:18 *888:B 0
28 *224:33 *890:B 0
29 *225:15 *888:B 0
*RES
1 *887:Y *226:22 33.4738 
2 *226:22 *226:23 0.946429 
3 *226:23 *226:25 2.17857 
4 *226:25 *890:B 23.0321 
5 *226:25 *895:B 9.72857 
6 *226:23 *897:C 9.72857 
7 *226:22 *888:B 11.9071 
*END

*D_NET *227 0.00562928
*CONN
*I *922:A2 I *D sky130_fd_sc_hd__a222oi_1
*I *951:B1 I *D sky130_fd_sc_hd__a222oi_1
*I *915:B1 I *D sky130_fd_sc_hd__a222oi_1
*I *905:A2 I *D sky130_fd_sc_hd__a22oi_1
*I *930:B1 I *D sky130_fd_sc_hd__a222oi_1
*I *940:A2 I *D sky130_fd_sc_hd__a22oi_1
*I *898:A2 I *D sky130_fd_sc_hd__a22oi_1
*I *936:A2 I *D sky130_fd_sc_hd__a222oi_1
*I *888:Y O *D sky130_fd_sc_hd__nor2_1
*CAP
1 *922:A2 0
2 *951:B1 0
3 *915:B1 0.000165243
4 *905:A2 3.46529e-05
5 *930:B1 0.000292759
6 *940:A2 6.29386e-05
7 *898:A2 3.03747e-05
8 *936:A2 0.000531429
9 *888:Y 0.00046261
10 *227:93 0.000272178
11 *227:58 0.000535604
12 *227:53 0.000587058
13 *227:49 0.00077624
14 *227:19 0.000719453
15 *227:17 0.000647575
16 *227:13 0.000511167
17 *898:A2 *922:C1 0
18 *915:B1 *915:A1 0
19 *915:B1 *915:C1 0
20 *915:B1 *930:A1 0
21 *915:B1 *233:42 0
22 *915:B1 *252:14 0
23 *930:B1 *936:A1 0
24 *930:B1 *236:40 0
25 *936:A2 *903:A1 0
26 *936:A2 *903:C1 0
27 *936:A2 *906:A2 0
28 *936:A2 *909:B 0
29 *936:A2 *910:A1 0
30 *936:A2 *910:C1 0
31 *936:A2 *924:B 0
32 *936:A2 *936:A1 0
33 *936:A2 *641:40 0
34 *940:A2 *930:A1 0
35 *227:13 *897:B 0
36 *227:13 *899:A2 0
37 *227:13 *935:B2 0
38 *227:13 *1041:C 0
39 *227:13 *1041:D 0
40 *227:13 *1042:D 0
41 *227:13 *230:12 0
42 *227:13 *641:40 0
43 *227:17 *922:B2 0
44 *227:17 *922:C1 0
45 *227:19 *922:A1 0
46 *227:19 *922:B1 0
47 *227:19 *922:B2 0
48 *227:49 *900:B1 0
49 *227:49 *950:A1 0
50 *227:49 *950:B1 0
51 *227:49 *951:B2 0
52 *227:49 *952:C 0
53 *227:49 *1042:D 0
54 *227:49 *230:43 0
55 *227:49 *233:22 0
56 *227:49 *233:29 0
57 *227:49 *359:31 0
58 *227:49 *634:36 0
59 *227:53 *951:A1 0
60 *227:53 *951:B2 0
61 *227:58 *359:31 0
62 *888:B *227:13 0
63 *224:51 *227:49 0
64 *224:65 *930:B1 0
65 *224:70 *930:B1 0
66 *225:15 *227:13 0
*RES
1 *888:Y *227:13 28.3714 
2 *227:13 *227:17 1.04464 
3 *227:17 *227:19 3.38393 
4 *227:19 *936:A2 29.7464 
5 *227:19 *898:A2 9.93393 
6 *227:17 *227:49 19.1518 
7 *227:49 *227:53 7.15179 
8 *227:53 *227:58 8.38393 
9 *227:58 *940:A2 15.3536 
10 *227:58 *930:B1 23.16 
11 *227:53 *227:93 10.6429 
12 *227:93 *905:A2 10.0857 
13 *227:93 *915:B1 13.0054 
14 *227:49 *951:B1 9.3 
15 *227:13 *922:A2 9.3 
*END

*D_NET *228 0.00676061
*CONN
*I *927:A2 I *D sky130_fd_sc_hd__a222oi_1
*I *901:B1 I *D sky130_fd_sc_hd__a222oi_1
*I *910:A2 I *D sky130_fd_sc_hd__a221oi_1
*I *920:B1 I *D sky130_fd_sc_hd__a222oi_1
*I *948:A2 I *D sky130_fd_sc_hd__a222oi_1
*I *934:A2 I *D sky130_fd_sc_hd__a222oi_1
*I *945:A2 I *D sky130_fd_sc_hd__a221oi_1
*I *917:A2 I *D sky130_fd_sc_hd__a221oi_1
*I *889:Y O *D sky130_fd_sc_hd__nor4_1
*CAP
1 *927:A2 1.02675e-05
2 *901:B1 2.8118e-05
3 *910:A2 0.000584657
4 *920:B1 3.57331e-05
5 *948:A2 0.00028402
6 *934:A2 1.73264e-05
7 *945:A2 0.000124921
8 *917:A2 0
9 *889:Y 0.000128268
10 *228:54 0.000507299
11 *228:43 0.000628418
12 *228:35 0.000941743
13 *228:27 0.000846779
14 *228:26 0.000941677
15 *228:19 0.000880571
16 *228:8 0.000800815
17 *901:B1 *901:B2 0
18 *910:A2 *901:C1 0
19 *910:A2 *901:C2 0
20 *910:A2 *902:D 0
21 *910:A2 *903:A1 0
22 *910:A2 *910:A1 0
23 *910:A2 *924:B 0
24 *910:A2 *231:20 0
25 *910:A2 *242:10 0
26 *910:A2 *682:66 0
27 *920:B1 *920:A1 0
28 *920:B1 *920:C1 0
29 *945:A2 *945:A1 0
30 *945:A2 *277:16 0
31 *945:A2 *278:7 0
32 *948:A2 uo_out[7] 0
33 *948:A2 *934:B2 0
34 *948:A2 *284:26 0
35 *948:A2 *588:14 0
36 *948:A2 *765:11 0
37 *228:8 *881:B 0
38 *228:8 *725:31 0
39 *228:19 *884:A 0
40 *228:19 *901:A1 0
41 *228:19 *901:B2 0
42 *228:19 *922:B2 0
43 *228:19 *927:C1 0
44 *228:19 *932:A1 0
45 *228:19 *231:9 0
46 *228:19 *620:27 0
47 *228:19 *620:41 0
48 *228:19 *640:20 0
49 *228:19 *725:50 0
50 *228:26 *901:B2 0
51 *228:26 *901:C1 0
52 *228:26 *901:C2 0
53 *228:26 *920:C1 0
54 *228:26 *231:9 0
55 *228:26 *248:13 0
56 *228:27 *920:A1 0
57 *228:27 *920:C1 0
58 *228:35 *913:B2 0
59 *228:35 *913:C2 0
60 *228:35 *918:A2 0
61 *228:35 *918:A3 0
62 *228:35 *920:B2 0
63 *228:35 *920:C1 0
64 *228:35 *925:A1 0
65 *228:35 *936:B1 0
66 *228:35 *235:40 0
67 *228:35 *660:52 0
68 *228:43 *924:A 0
69 *228:43 *924:B 0
70 *228:43 *924:C 0
71 *228:43 *277:16 0
72 *228:54 *939:A3 0
73 *228:54 *278:11 0
74 *901:A2 *228:19 0
75 *920:A2 *228:19 0
76 *219:24 *228:35 0
77 *225:6 *228:8 0
*RES
1 *889:Y *228:8 16.6929 
2 *228:8 *228:19 17.337 
3 *228:19 *228:26 13.1696 
4 *228:26 *228:27 3.54464 
5 *228:27 *228:35 23.1875 
6 *228:35 *917:A2 9.3 
7 *228:35 *228:43 6.30357 
8 *228:43 *945:A2 11.9071 
9 *228:43 *228:54 9.17857 
10 *228:54 *934:A2 14.3089 
11 *228:54 *948:A2 23.8328 
12 *228:27 *920:B1 10.0813 
13 *228:26 *910:A2 31.3893 
14 *228:19 *901:B1 9.91607 
15 *228:8 *927:A2 14.0143 
*END

*D_NET *229 0.00706509
*CONN
*I *927:B1 I *D sky130_fd_sc_hd__a222oi_1
*I *913:A2 I *D sky130_fd_sc_hd__a222oi_1
*I *906:A2 I *D sky130_fd_sc_hd__a22oi_1
*I *923:B1 I *D sky130_fd_sc_hd__a222oi_1
*I *949:A2 I *D sky130_fd_sc_hd__a22oi_1
*I *941:A2 I *D sky130_fd_sc_hd__a22oi_1
*I *935:B1 I *D sky130_fd_sc_hd__a22oi_1
*I *899:A2 I *D sky130_fd_sc_hd__a22oi_1
*I *890:Y O *D sky130_fd_sc_hd__nor2_1
*CAP
1 *927:B1 0.000379042
2 *913:A2 7.66855e-05
3 *906:A2 0.000237598
4 *923:B1 0.00036086
5 *949:A2 0.000397545
6 *941:A2 0
7 *935:B1 8.17123e-05
8 *899:A2 0.000239852
9 *890:Y 0
10 *229:56 0.00097472
11 *229:51 0.000669557
12 *229:40 0.000770735
13 *229:32 0.000638939
14 *229:29 0.000944302
15 *229:9 0.000766103
16 *229:5 0.000527439
17 *899:A2 *935:A1 0
18 *899:A2 *230:12 0
19 *906:A2 *910:C1 0
20 *906:A2 *944:C 0
21 *906:A2 *273:19 0
22 *913:A2 *918:A2 0
23 *923:B1 *923:A1 0
24 *923:B1 *923:C2 0
25 *923:B1 *944:C 0
26 *923:B1 *277:16 0
27 *927:B1 *884:A 0
28 *927:B1 *927:A1 0
29 *927:B1 *927:C1 0
30 *927:B1 *230:7 0
31 *927:B1 *230:12 0
32 *935:B1 *606:36 0
33 *949:A2 *928:A2 0
34 *949:A2 *932:A2 0
35 *949:A2 *232:22 0
36 *949:A2 *232:28 0
37 *229:9 *922:B1 0
38 *229:9 *606:36 0
39 *229:29 *922:B1 0
40 *229:29 *620:27 0
41 *229:32 *941:A1 0
42 *229:40 *941:A1 0
43 *229:40 *232:20 0
44 *229:40 *232:22 0
45 *229:51 *944:B 0
46 *229:51 *232:66 0
47 *229:56 *936:B1 0
48 *229:56 *944:B 0
49 *229:56 *944:D 0
50 *229:56 *230:52 0
51 *229:56 *232:66 0
52 *890:B *229:9 0
53 *936:A2 *906:A2 0
54 *224:20 *229:29 0
55 *224:33 *935:B1 0
56 *224:33 *229:9 0
57 *226:22 *927:B1 0
58 *227:13 *899:A2 0
*RES
1 *890:Y *229:5 13.8 
2 *229:5 *229:9 14.125 
3 *229:9 *899:A2 23.733 
4 *229:9 *935:B1 11.0679 
5 *229:5 *229:29 6.44643 
6 *229:29 *229:32 10.1295 
7 *229:32 *941:A2 9.3 
8 *229:32 *229:40 3.29911 
9 *229:40 *949:A2 17.483 
10 *229:40 *229:51 9.48214 
11 *229:51 *229:56 12.9464 
12 *229:56 *923:B1 16.8312 
13 *229:56 *906:A2 23.5054 
14 *229:51 *913:A2 15.608 
15 *229:29 *927:B1 17.4562 
*END

*D_NET *230 0.00550906
*CONN
*I *927:C2 I *D sky130_fd_sc_hd__a222oi_1
*I *922:C1 I *D sky130_fd_sc_hd__a222oi_1
*I *912:B I *D sky130_fd_sc_hd__nand2_1
*I *910:B1 I *D sky130_fd_sc_hd__a221oi_1
*I *936:C1 I *D sky130_fd_sc_hd__a222oi_1
*I *942:A2 I *D sky130_fd_sc_hd__a222oi_1
*I *900:A2 I *D sky130_fd_sc_hd__a222oi_1
*I *950:A2 I *D sky130_fd_sc_hd__a222oi_1
*I *891:Y O *D sky130_fd_sc_hd__nor3_1
*CAP
1 *927:C2 1.75403e-05
2 *922:C1 8.12598e-05
3 *912:B 0.000289123
4 *910:B1 0
5 *936:C1 2.26741e-05
6 *942:A2 1.02675e-05
7 *900:A2 0.000182455
8 *950:A2 0.000114924
9 *891:Y 0.000249415
10 *230:66 0.000314685
11 *230:52 0.000410744
12 *230:45 0.000728218
13 *230:43 0.000635246
14 *230:26 0.000594692
15 *230:12 0.000944444
16 *230:7 0.000913371
17 *900:A2 *900:A1 0
18 *900:A2 *900:B1 0
19 *900:A2 *900:B2 0
20 *900:A2 *950:B2 0
21 *900:A2 *233:22 0
22 *900:A2 *233:29 0
23 *912:B *903:B1 0
24 *912:B *903:C1 0
25 *912:B *910:B2 0
26 *912:B *910:C1 0
27 *912:B *912:A 0
28 *912:B *918:A1 0
29 *912:B *231:26 0
30 *912:B *248:13 0
31 *912:B *605:47 0
32 *922:C1 *922:B2 0
33 *922:C1 *924:B 0
34 *922:C1 *236:18 0
35 *922:C1 *236:30 0
36 *936:C1 *936:B1 0
37 *950:A2 *950:C2 0
38 *950:A2 *1042:D 0
39 *950:A2 *1046:B 0
40 *230:7 *927:B2 0
41 *230:12 *897:A 0
42 *230:12 *900:B1 0
43 *230:12 *935:A1 0
44 *230:12 *1041:C 0
45 *230:12 *1042:D 0
46 *230:12 *1046:B 0
47 *230:12 *236:18 0
48 *230:12 *641:40 0
49 *230:26 *950:C2 0
50 *230:43 *906:A1 0
51 *230:43 *910:B2 0
52 *230:43 *950:B2 0
53 *230:43 *233:22 0
54 *230:43 *236:18 0
55 *230:45 *898:A1 0
56 *230:45 *910:B2 0
57 *230:45 *284:26 0
58 *230:52 *903:B2 0
59 *230:52 *910:B2 0
60 *230:52 *942:B2 0
61 *230:52 *944:B 0
62 *230:52 *231:37 0
63 *230:52 *284:26 0
64 *230:66 *903:C1 0
65 *230:66 *910:C1 0
66 *895:A *230:12 0
67 *898:A2 *922:C1 0
68 *899:A2 *230:12 0
69 *927:B1 *230:7 0
70 *927:B1 *230:12 0
71 *222:19 *922:C1 0
72 *226:22 *230:12 0
73 *227:13 *230:12 0
74 *227:17 *922:C1 0
75 *227:49 *230:43 0
76 *229:56 *230:52 0
*RES
1 *891:Y *230:7 14.5054 
2 *230:7 *230:12 19.2054 
3 *230:12 *950:A2 16.2821 
4 *230:12 *230:26 12.8214 
5 *230:26 *900:A2 17.7464 
6 *230:26 *230:43 7.05777 
7 *230:43 *230:45 1.20007 
8 *230:45 *230:52 12.8288 
9 *230:52 *942:A2 9.51429 
10 *230:52 *936:C1 9.83571 
11 *230:45 *230:66 3.99036 
12 *230:66 *910:B1 13.8 
13 *230:66 *912:B 20.4071 
14 *230:43 *922:C1 19.0805 
15 *230:7 *927:C2 9.72857 
*END

*D_NET *231 0.00659158
*CONN
*I *903:B1 I *D sky130_fd_sc_hd__a221oi_1
*I *906:B1 I *D sky130_fd_sc_hd__a22oi_1
*I *942:B1 I *D sky130_fd_sc_hd__a222oi_1
*I *928:A2 I *D sky130_fd_sc_hd__a22oi_1
*I *949:B1 I *D sky130_fd_sc_hd__a22oi_1
*I *934:B1 I *D sky130_fd_sc_hd__a222oi_1
*I *914:B1 I *D sky130_fd_sc_hd__a222oi_1
*I *920:C1 I *D sky130_fd_sc_hd__a222oi_1
*I *892:Y O *D sky130_fd_sc_hd__nor3_1
*CAP
1 *903:B1 8.115e-05
2 *906:B1 0
3 *942:B1 3.27277e-05
4 *928:A2 0.000177211
5 *949:B1 7.26319e-05
6 *934:B1 0.000172409
7 *914:B1 9.13381e-05
8 *920:C1 0.000336261
9 *892:Y 0.000479151
10 *231:67 0.000424649
11 *231:50 0.000792271
12 *231:39 0.000912015
13 *231:37 0.000655256
14 *231:26 0.000733098
15 *231:20 0.00069167
16 *231:9 0.000939742
17 *914:B1 *236:57 0
18 *920:C1 *920:A1 0
19 *920:C1 *920:B2 0
20 *920:C1 *920:C2 0
21 *928:A2 *232:28 0
22 *934:B1 *939:A1 0
23 *934:B1 *948:A1 0
24 *231:9 *892:B 0
25 *231:9 *896:B 0
26 *231:9 *902:D 0
27 *231:9 *235:8 0
28 *231:20 *920:A1 0
29 *231:26 *910:B2 0
30 *231:26 *910:C1 0
31 *231:26 *918:A1 0
32 *231:26 *918:A2 0
33 *231:26 *942:B2 0
34 *231:26 *248:13 0
35 *231:26 *641:40 0
36 *231:26 *660:52 0
37 *231:37 *909:C 0
38 *231:37 *936:B1 0
39 *231:37 *942:A1 0
40 *231:37 *942:B2 0
41 *231:37 *944:D 0
42 *231:37 *284:26 0
43 *231:39 *917:C1 0
44 *231:39 *936:B1 0
45 *231:39 *236:49 0
46 *231:39 *236:57 0
47 *231:50 uo_out[5] 0
48 *231:50 *923:A1 0
49 *231:50 *924:C 0
50 *231:50 *925:A3 0
51 *231:50 *939:A3 0
52 *231:50 *236:57 0
53 *231:50 *269:20 0
54 *231:50 *277:16 0
55 *231:50 *606:36 0
56 *231:67 *232:37 0
57 *231:67 *269:20 0
58 *901:A2 *231:9 0
59 *910:A2 *231:20 0
60 *912:B *903:B1 0
61 *912:B *231:26 0
62 *914:A2 *914:B1 0
63 *914:A2 *231:39 0
64 *920:B1 *920:C1 0
65 *923:A2 *231:39 0
66 *949:A2 *928:A2 0
67 *953:B1 *231:50 0
68 *953:B1 *231:67 0
69 *228:19 *231:9 0
70 *228:26 *920:C1 0
71 *228:26 *231:9 0
72 *228:27 *920:C1 0
73 *228:35 *920:C1 0
74 *230:52 *231:37 0
*RES
1 *892:Y *231:9 19.425 
2 *231:9 *920:C1 16.3179 
3 *231:9 *231:20 7.35714 
4 *231:20 *231:26 19.7321 
5 *231:26 *231:37 14.7898 
6 *231:37 *231:39 7.77679 
7 *231:39 *914:B1 11.2063 
8 *231:39 *231:50 14.6429 
9 *231:50 *934:B1 17.4652 
10 *231:50 *231:67 8.5 
11 *231:67 *949:B1 10.9786 
12 *231:67 *928:A2 13.5009 
13 *231:37 *942:B1 9.98304 
14 *231:26 *906:B1 13.8 
15 *231:20 *903:B1 15.675 
*END

*D_NET *232 0.00821166
*CONN
*I *922:B1 I *D sky130_fd_sc_hd__a222oi_1
*I *941:B1 I *D sky130_fd_sc_hd__a22oi_1
*I *913:B1 I *D sky130_fd_sc_hd__a222oi_1
*I *936:B1 I *D sky130_fd_sc_hd__a222oi_1
*I *928:B1 I *D sky130_fd_sc_hd__a22oi_1
*I *948:B1 I *D sky130_fd_sc_hd__a222oi_1
*I *907:C2 I *D sky130_fd_sc_hd__a222oi_1
*I *901:C1 I *D sky130_fd_sc_hd__a222oi_1
*I *893:Y O *D sky130_fd_sc_hd__nor3_1
*CAP
1 *922:B1 0.000561336
2 *941:B1 2.0535e-05
3 *913:B1 4.29952e-05
4 *936:B1 0.000621088
5 *928:B1 0
6 *948:B1 0.000137328
7 *907:C2 0.000562768
8 *901:C1 7.23212e-05
9 *893:Y 0.00016043
10 *232:66 0.000880732
11 *232:37 0.00137378
12 *232:28 0.00093936
13 *232:22 0.000603392
14 *232:20 0.000400433
15 *232:10 0.000722271
16 *232:5 0.00111289
17 *901:C1 *242:10 0
18 *907:C2 *907:C1 0
19 *907:C2 *914:C2 0
20 *907:C2 *945:B2 0
21 *907:C2 *948:C1 0
22 *907:C2 *948:C2 0
23 *907:C2 *1031:A 0
24 *907:C2 *1031:C 0
25 *907:C2 *1253:A 0
26 *907:C2 *345:11 0
27 *907:C2 *657:35 0
28 *922:B1 *884:B 0
29 *922:B1 *897:B 0
30 *922:B1 *900:B1 0
31 *922:B1 *922:A1 0
32 *922:B1 *922:B2 0
33 *922:B1 *941:A1 0
34 *922:B1 *236:18 0
35 *922:B1 *269:20 0
36 *936:B1 *918:A2 0
37 *936:B1 *936:A1 0
38 *936:B1 *936:C2 0
39 *936:B1 *944:C 0
40 *936:B1 *944:D 0
41 *936:B1 *235:40 0
42 *948:B1 *948:A1 0
43 *232:5 *727:30 0
44 *232:10 *901:C2 0
45 *232:10 *242:10 0
46 *232:20 *941:A1 0
47 *232:37 *932:A2 0
48 *232:37 *932:A3 0
49 *232:37 *953:A1 0
50 *232:37 *953:A2 0
51 *232:37 *1031:C 0
52 *232:37 *1253:A 0
53 *232:37 *1461:RESET_B 0
54 *232:37 *680:5 0
55 *232:37 *681:38 0
56 *232:66 *913:B2 0
57 *893:C *922:B1 0
58 *893:C *232:5 0
59 *910:A2 *901:C1 0
60 *928:A2 *232:28 0
61 *936:C1 *936:B1 0
62 *949:A2 *232:22 0
63 *949:A2 *232:28 0
64 *953:B1 *232:37 0
65 *222:19 *922:B1 0
66 *224:33 *922:B1 0
67 *227:19 *922:B1 0
68 *228:26 *901:C1 0
69 *228:35 *936:B1 0
70 *229:9 *922:B1 0
71 *229:29 *922:B1 0
72 *229:40 *232:20 0
73 *229:40 *232:22 0
74 *229:51 *232:66 0
75 *229:56 *936:B1 0
76 *229:56 *232:66 0
77 *231:37 *936:B1 0
78 *231:39 *936:B1 0
79 *231:67 *232:37 0
*RES
1 *893:Y *232:5 12.7107 
2 *232:5 *232:10 12.9286 
3 *232:10 *901:C1 15.4429 
4 *232:10 *232:20 9.96429 
5 *232:20 *232:22 2.58929 
6 *232:22 *232:28 5.60714 
7 *232:28 *232:37 27.9821 
8 *232:37 *907:C2 26.3446 
9 *232:37 *948:B1 16.7286 
10 *232:28 *928:B1 9.3 
11 *232:22 *232:66 9.48214 
12 *232:66 *936:B1 27.4384 
13 *232:66 *913:B1 14.6973 
14 *232:20 *941:B1 9.72857 
15 *232:5 *922:B1 31.0187 
*END

*D_NET *233 0.00547899
*CONN
*I *899:B1 I *D sky130_fd_sc_hd__a22oi_1
*I *950:C1 I *D sky130_fd_sc_hd__a222oi_1
*I *933:B I *D sky130_fd_sc_hd__nand2_1
*I *929:C1 I *D sky130_fd_sc_hd__a222oi_1
*I *919:B I *D sky130_fd_sc_hd__nand2_1
*I *905:B1 I *D sky130_fd_sc_hd__a22oi_1
*I *940:B1 I *D sky130_fd_sc_hd__a22oi_1
*I *915:C1 I *D sky130_fd_sc_hd__a222oi_1
*I *894:Y O *D sky130_fd_sc_hd__nor2_1
*CAP
1 *899:B1 2.0535e-05
2 *950:C1 0
3 *933:B 2.0535e-05
4 *929:C1 0.000187761
5 *919:B 0
6 *905:B1 1.68986e-05
7 *940:B1 0.000140964
8 *915:C1 5.63404e-05
9 *894:Y 0.000484933
10 *233:75 0.000339635
11 *233:67 0.000895364
12 *233:42 0.000257757
13 *233:30 0.000239154
14 *233:29 0.0012359
15 *233:22 0.000733351
16 *233:11 0.000849861
17 *929:C1 *914:A1 0
18 *929:C1 *929:A1 0
19 *929:C1 *929:B1 0
20 *929:C1 *929:C2 0
21 *929:C1 *937:B1 0
22 *929:C1 *345:11 0
23 *929:C1 *359:31 0
24 *933:B *933:A 0
25 *940:B1 *930:A1 0
26 *940:B1 *273:19 0
27 *233:11 *899:A1 0
28 *233:11 *910:A1 0
29 *233:11 *910:B2 0
30 *233:11 *922:C2 0
31 *233:11 *935:A1 0
32 *233:11 *1041:C 0
33 *233:11 *620:41 0
34 *233:11 *639:18 0
35 *233:22 *900:A1 0
36 *233:22 *910:A1 0
37 *233:22 *950:B1 0
38 *233:22 *236:18 0
39 *233:22 *641:40 0
40 *233:29 *951:B2 0
41 *233:29 *951:C1 0
42 *233:29 *952:B 0
43 *233:29 *952:C 0
44 *233:29 *236:30 0
45 *233:29 *359:31 0
46 *233:42 *930:A1 0
47 *233:67 *908:B2 0
48 *233:67 *924:A 0
49 *233:67 *931:A 0
50 *233:67 *942:A1 0
51 *233:67 *1045:C 0
52 *233:67 *252:14 0
53 *233:67 *345:11 0
54 *233:75 *924:A 0
55 *233:75 *929:A1 0
56 *233:75 *933:A 0
57 *233:75 *345:11 0
58 *894:B *233:11 0
59 *900:A2 *233:22 0
60 *900:A2 *233:29 0
61 *915:B1 *915:C1 0
62 *915:B1 *233:42 0
63 *220:18 *233:11 0
64 *224:51 *233:11 0
65 *224:70 *233:67 0
66 *227:49 *233:22 0
67 *227:49 *233:29 0
68 *230:43 *233:22 0
*RES
1 *894:Y *233:11 28.9607 
2 *233:11 *233:22 21.0357 
3 *233:22 *233:29 17.5 
4 *233:29 *233:30 1.94643 
5 *233:30 *915:C1 15.0679 
6 *233:30 *233:42 6.67857 
7 *233:42 *940:B1 12.3179 
8 *233:42 *905:B1 9.72857 
9 *233:29 *233:67 17.0469 
10 *233:67 *919:B 9.3 
11 *233:67 *233:75 3.01786 
12 *233:75 *929:C1 22.3893 
13 *233:75 *933:B 9.72857 
14 *233:22 *950:C1 13.8 
15 *233:11 *899:B1 9.72857 
*END

*D_NET *234 0.00706086
*CONN
*I *934:C1 I *D sky130_fd_sc_hd__a222oi_1
*I *921:A2 I *D sky130_fd_sc_hd__a22oi_1
*I *907:A2 I *D sky130_fd_sc_hd__a222oi_1
*I *945:B1 I *D sky130_fd_sc_hd__a221oi_1
*I *948:C1 I *D sky130_fd_sc_hd__a222oi_1
*I *917:B1 I *D sky130_fd_sc_hd__a221oi_1
*I *929:B1 I *D sky130_fd_sc_hd__a222oi_1
*I *900:B1 I *D sky130_fd_sc_hd__a222oi_1
*I *895:Y O *D sky130_fd_sc_hd__nor2_1
*CAP
1 *934:C1 0.000127666
2 *921:A2 3.76475e-05
3 *907:A2 0.000135994
4 *945:B1 0
5 *948:C1 0.000275105
6 *917:B1 0
7 *929:B1 0.000538593
8 *900:B1 0.000611183
9 *895:Y 0
10 *234:72 0.000302701
11 *234:63 0.000309794
12 *234:60 0.0003084
13 *234:48 0.000612649
14 *234:29 0.00070164
15 *234:27 0.00149445
16 *234:5 0.00160504
17 *900:B1 *899:B2 0
18 *900:B1 *900:A1 0
19 *900:B1 *900:B2 0
20 *900:B1 *900:C1 0
21 *900:B1 *950:C2 0
22 *900:B1 *1042:D 0
23 *900:B1 *236:18 0
24 *900:B1 *269:20 0
25 *900:B1 *641:40 0
26 *907:A2 *907:C1 0
27 *907:A2 *916:A 0
28 *907:A2 *923:C1 0
29 *907:A2 *925:A2 0
30 *907:A2 *937:C1 0
31 *921:A2 *921:B1 0
32 *921:A2 *923:C2 0
33 *929:B1 *924:A 0
34 *929:B1 *929:A1 0
35 *929:B1 *931:C 0
36 *929:B1 *932:A3 0
37 *929:B1 *937:A1 0
38 *929:B1 *943:B2 0
39 *929:B1 *359:31 0
40 *934:C1 *939:A1 0
41 *934:C1 *278:11 0
42 *934:C1 *588:14 0
43 *948:C1 *1031:C 0
44 *948:C1 *588:14 0
45 *948:C1 *660:52 0
46 *234:27 uo_out[2] 0
47 *234:27 *912:A 0
48 *234:27 *920:A1 0
49 *234:27 *925:A2 0
50 *234:27 *925:A3 0
51 *234:27 *932:A3 0
52 *234:27 *235:37 0
53 *234:27 *284:26 0
54 *234:27 *620:41 0
55 *234:27 *765:97 0
56 *234:29 *917:A1 0
57 *234:29 *925:A2 0
58 *234:29 *932:A3 0
59 *234:48 *606:36 0
60 *234:48 *660:52 0
61 *234:63 *903:B2 0
62 *234:63 *907:C1 0
63 *234:63 *278:11 0
64 *234:63 *588:14 0
65 *234:63 *659:16 0
66 *234:72 *914:B2 0
67 *234:72 *925:A2 0
68 *234:72 *939:A3 0
69 *900:A2 *900:B1 0
70 *907:C2 *948:C1 0
71 *918:B1 *234:27 0
72 *920:A2 *234:27 0
73 *922:B1 *900:B1 0
74 *929:C1 *929:B1 0
75 *222:14 *234:27 0
76 *227:49 *900:B1 0
77 *230:12 *900:B1 0
*RES
1 *895:Y *234:5 13.8 
2 *234:5 *900:B1 27.3804 
3 *234:5 *234:27 12.1814 
4 *234:27 *234:29 3.76786 
5 *234:29 *929:B1 25.7911 
6 *234:29 *917:B1 13.8 
7 *234:27 *234:48 11.6071 
8 *234:48 *948:C1 24.175 
9 *234:48 *234:60 4.5 
10 *234:60 *234:63 4.41071 
11 *234:63 *945:B1 13.8 
12 *234:63 *234:72 3.19643 
13 *234:72 *907:A2 16.8714 
14 *234:72 *921:A2 14.5857 
15 *234:60 *934:C1 16.6393 
*END

*D_NET *235 0.00785479
*CONN
*I *913:C1 I *D sky130_fd_sc_hd__a222oi_1
*I *908:B1 I *D sky130_fd_sc_hd__a222oi_1
*I *943:B1 I *D sky130_fd_sc_hd__a222oi_1
*I *921:B1 I *D sky130_fd_sc_hd__a22oi_1
*I *937:B1 I *D sky130_fd_sc_hd__a222oi_1
*I *926:B I *D sky130_fd_sc_hd__nand2_1
*I *898:B1 I *D sky130_fd_sc_hd__a22oi_1
*I *950:B1 I *D sky130_fd_sc_hd__a222oi_1
*I *896:Y O *D sky130_fd_sc_hd__nor3_1
*CAP
1 *913:C1 3.61606e-05
2 *908:B1 0.000255343
3 *943:B1 0
4 *921:B1 0.000391148
5 *937:B1 0.000224767
6 *926:B 0
7 *898:B1 0
8 *950:B1 0.000500811
9 *896:Y 0.000338849
10 *235:83 0.000480587
11 *235:49 0.000520079
12 *235:41 0.00104668
13 *235:40 0.00109208
14 *235:37 0.00115252
15 *235:10 0.000683994
16 *235:8 0.00113177
17 *908:B1 *909:D 0
18 *908:B1 *936:A1 0
19 *908:B1 *943:A1 0
20 *908:B1 *943:B2 0
21 *908:B1 *273:19 0
22 *913:C1 *932:A3 0
23 *921:B1 *914:A1 0
24 *921:B1 *914:B2 0
25 *921:B1 *923:C1 0
26 *921:B1 *923:C2 0
27 *921:B1 *937:C1 0
28 *921:B1 *939:A3 0
29 *937:B1 *914:A1 0
30 *937:B1 *926:A 0
31 *937:B1 *937:A1 0
32 *937:B1 *937:C2 0
33 *937:B1 *345:11 0
34 *950:B1 *898:A1 0
35 *950:B1 *902:A 0
36 *950:B1 *902:B 0
37 *950:B1 *902:D 0
38 *950:B1 *910:A1 0
39 *950:B1 *950:B2 0
40 *950:B1 *950:C2 0
41 *235:8 *922:B2 0
42 *235:10 *902:A 0
43 *235:10 *902:D 0
44 *235:10 *922:B2 0
45 *235:37 *912:A 0
46 *235:37 *765:97 0
47 *235:40 *913:C2 0
48 *235:40 *932:A3 0
49 *235:40 *942:B2 0
50 *235:40 *944:C 0
51 *235:40 *944:D 0
52 *235:40 *252:14 0
53 *235:40 *660:52 0
54 *235:41 *938:A 0
55 *235:41 *939:A3 0
56 *235:41 *943:B2 0
57 *235:49 *926:A 0
58 *235:49 *937:A1 0
59 *235:49 *937:C1 0
60 *235:49 *345:11 0
61 *235:83 *936:A1 0
62 *235:83 *943:A1 0
63 *235:83 *943:B2 0
64 *235:83 *943:C2 0
65 *921:A2 *921:B1 0
66 *929:C1 *937:B1 0
67 *936:B1 *235:40 0
68 *937:A2 *235:49 0
69 *943:A2 *908:B1 0
70 *222:14 *235:10 0
71 *222:19 *235:10 0
72 *222:44 *235:41 0
73 *222:44 *235:83 0
74 *222:48 *235:41 0
75 *224:33 *235:8 0
76 *227:49 *950:B1 0
77 *228:35 *235:40 0
78 *231:9 *235:8 0
79 *233:22 *950:B1 0
80 *234:27 *235:37 0
*RES
1 *896:Y *235:8 21.1482 
2 *235:8 *235:10 4.22321 
3 *235:10 *950:B1 33.7152 
4 *235:10 *898:B1 13.8 
5 *235:8 *235:37 9.029 
6 *235:37 *235:40 16.0089 
7 *235:40 *235:41 7.51786 
8 *235:41 *235:49 15.5714 
9 *235:49 *926:B 9.3 
10 *235:49 *937:B1 23.1616 
11 *235:41 *921:B1 26.8893 
12 *235:40 *235:83 4.79464 
13 *235:83 *943:B1 9.3 
14 *235:83 *908:B1 23.9295 
15 *235:37 *913:C1 14.6839 
*END

*D_NET *236 0.00689101
*CONN
*I *900:C1 I *D sky130_fd_sc_hd__a222oi_1
*I *951:C1 I *D sky130_fd_sc_hd__a222oi_1
*I *930:C1 I *D sky130_fd_sc_hd__a222oi_1
*I *942:C1 I *D sky130_fd_sc_hd__a222oi_1
*I *923:C1 I *D sky130_fd_sc_hd__a222oi_1
*I *937:C1 I *D sky130_fd_sc_hd__a222oi_1
*I *914:C1 I *D sky130_fd_sc_hd__a222oi_1
*I *907:B1 I *D sky130_fd_sc_hd__a222oi_1
*I *897:Y O *D sky130_fd_sc_hd__nor3_1
*CAP
1 *900:C1 0.00021904
2 *951:C1 6.50276e-05
3 *930:C1 0
4 *942:C1 1.90377e-05
5 *923:C1 0.00017036
6 *937:C1 0.000324718
7 *914:C1 7.43753e-05
8 *907:B1 0.000152366
9 *897:Y 0.000585956
10 *236:83 0.000495078
11 *236:57 0.000690062
12 *236:49 0.000892566
13 *236:40 0.00108104
14 *236:30 0.00102612
15 *236:18 0.00109526
16 *900:C1 *900:B2 0
17 *900:C1 *902:C 0
18 *907:B1 *914:C2 0
19 *914:C1 *914:C2 0
20 *923:C1 *923:C2 0
21 *937:C1 *907:B2 0
22 *937:C1 *937:A1 0
23 *951:C1 *951:B2 0
24 *951:C1 *359:31 0
25 *236:18 *897:B 0
26 *236:18 *922:A1 0
27 *236:18 *922:C2 0
28 *236:18 *269:20 0
29 *236:18 *284:26 0
30 *236:18 *605:47 0
31 *236:30 *900:A1 0
32 *236:30 *900:C2 0
33 *236:30 *951:C2 0
34 *236:30 *952:B 0
35 *236:30 *284:26 0
36 *236:40 *898:A1 0
37 *236:40 *905:A1 0
38 *236:40 *908:B2 0
39 *236:40 *940:A1 0
40 *236:40 *951:B2 0
41 *236:40 *691:36 0
42 *236:49 *931:C 0
43 *236:49 *936:A1 0
44 *236:49 *942:A1 0
45 *236:49 *942:B2 0
46 *236:49 *252:14 0
47 *236:49 *345:11 0
48 *236:57 *916:A 0
49 *236:57 *916:B 0
50 *236:57 *923:A1 0
51 *900:B1 *900:C1 0
52 *900:B1 *236:18 0
53 *907:A2 *923:C1 0
54 *907:A2 *937:C1 0
55 *914:B1 *236:57 0
56 *921:B1 *923:C1 0
57 *921:B1 *937:C1 0
58 *922:B1 *236:18 0
59 *922:C1 *236:18 0
60 *922:C1 *236:30 0
61 *923:A2 *236:57 0
62 *930:B1 *236:40 0
63 *943:C1 *236:49 0
64 *222:19 *236:18 0
65 *224:33 *236:18 0
66 *224:65 *236:40 0
67 *224:70 *236:49 0
68 *230:12 *236:18 0
69 *230:43 *236:18 0
70 *231:39 *236:49 0
71 *231:39 *236:57 0
72 *231:50 *236:57 0
73 *233:22 *236:18 0
74 *233:29 *951:C1 0
75 *233:29 *236:30 0
76 *235:49 *937:C1 0
*RES
1 *897:Y *236:18 35.8536 
2 *236:18 *236:30 7.10714 
3 *236:30 *236:40 15.7599 
4 *236:40 *236:49 18.2321 
5 *236:49 *236:57 18.8036 
6 *236:57 *907:B1 13.0232 
7 *236:57 *914:C1 11.0946 
8 *236:57 *236:83 4.5 
9 *236:83 *937:C1 21.3 
10 *236:83 *923:C1 17.5143 
11 *236:49 *942:C1 9.72857 
12 *236:40 *930:C1 9.3 
13 *236:30 *951:C1 15.1571 
14 *236:18 *900:C1 18.4964 
*END

*D_NET *237 0.000281712
*CONN
*I *902:A I *D sky130_fd_sc_hd__nand4_1
*I *898:Y O *D sky130_fd_sc_hd__a22oi_1
*CAP
1 *902:A 0.000140856
2 *898:Y 0.000140856
3 *902:A *910:A1 0
4 *950:B1 *902:A 0
5 *222:19 *902:A 0
6 *235:10 *902:A 0
*RES
1 *898:Y *902:A 30.6893 
*END

*D_NET *238 0.000995056
*CONN
*I *902:B I *D sky130_fd_sc_hd__nand4_1
*I *899:Y O *D sky130_fd_sc_hd__a22oi_1
*CAP
1 *902:B 0.000497528
2 *899:Y 0.000497528
3 *902:B *902:C 0
4 *902:B *903:A1 0
5 *902:B *903:C1 0
6 *902:B *910:A1 0
7 *902:B *641:40 0
8 *950:B1 *902:B 0
*RES
1 *899:Y *902:B 38.1179 
*END

*D_NET *239 0.000262002
*CONN
*I *902:C I *D sky130_fd_sc_hd__nand4_1
*I *900:Y O *D sky130_fd_sc_hd__a222oi_1
*CAP
1 *902:C 0.000131001
2 *900:Y 0.000131001
3 *902:C *903:A1 0
4 *900:C1 *902:C 0
5 *902:B *902:C 0
6 *222:19 *902:C 0
*RES
1 *900:Y *902:C 30.4929 
*END

*D_NET *240 0.000995065
*CONN
*I *902:D I *D sky130_fd_sc_hd__nand4_1
*I *901:Y O *D sky130_fd_sc_hd__a222oi_1
*CAP
1 *902:D 0.000497532
2 *901:Y 0.000497532
3 *902:D *898:A1 0
4 *902:D *910:A1 0
5 *902:D *922:B2 0
6 *902:D *242:10 0
7 *902:D *682:66 0
8 *910:A2 *902:D 0
9 *950:B1 *902:D 0
10 *231:9 *902:D 0
11 *235:10 *902:D 0
*RES
1 *901:Y *902:D 38.7071 
*END

*D_NET *241 0.000890191
*CONN
*I *903:C1 I *D sky130_fd_sc_hd__a221oi_1
*I *902:Y O *D sky130_fd_sc_hd__nand4_1
*CAP
1 *903:C1 0.000445095
2 *902:Y 0.000445095
3 *903:C1 *903:A1 0
4 *903:C1 *906:A1 0
5 *903:C1 *910:A1 0
6 *903:C1 *605:47 0
7 *903:C1 *606:36 0
8 *903:C1 *641:40 0
9 *902:B *903:C1 0
10 *912:B *903:C1 0
11 *936:A2 *903:C1 0
12 *230:66 *903:C1 0
*RES
1 *902:Y *903:C1 37.2607 
*END

*D_NET *242 0.00373517
*CONN
*I *904:B I *D sky130_fd_sc_hd__nor2_1
*I *903:Y O *D sky130_fd_sc_hd__a221oi_1
*CAP
1 *904:B 0
2 *903:Y 0.000584261
3 *242:20 0.00128333
4 *242:10 0.00186759
5 *242:10 *901:B2 0
6 *242:10 *922:B2 0
7 *242:10 *605:47 0
8 *242:20 *901:B2 0
9 *242:20 *936:B2 0
10 *242:20 *975:B2 0
11 *242:20 *977:B 0
12 *242:20 *1003:A 0
13 *242:20 *1007:C 0
14 *242:20 *1317:B 0
15 *242:20 *1318:B 0
16 *242:20 *1319:A 0
17 *242:20 *1320:A1 0
18 *242:20 *1320:A2 0
19 *242:20 *1481:CLK 0
20 *242:20 *248:13 0
21 *242:20 *360:406 0
22 *242:20 *669:10 0
23 *242:20 *670:24 0
24 *242:20 *673:42 0
25 *242:20 *746:9 0
26 *242:20 *776:9 0
27 *242:20 *776:43 0
28 *242:20 *777:37 0
29 *242:20 *777:46 0
30 *901:C1 *242:10 0
31 *902:D *242:10 0
32 *903:A2 *242:10 0
33 *910:A2 *242:10 0
34 *1481:D *242:20 0
35 *174:6 *242:20 0
36 *174:17 *242:20 0
37 *232:10 *242:10 0
*RES
1 *903:Y *242:10 27.0054 
2 *242:10 *242:20 42.4018 
3 *242:20 *904:B 9.3 
*END

*D_NET *243 0.000767196
*CONN
*I *909:A I *D sky130_fd_sc_hd__nand4_1
*I *905:Y O *D sky130_fd_sc_hd__a22oi_1
*CAP
1 *909:A 0.000383598
2 *905:Y 0.000383598
3 *909:A *900:B2 0
4 *909:A *905:A1 0
5 *909:A *936:A1 0
6 *908:A2 *909:A 0
7 *222:30 *909:A 0
*RES
1 *905:Y *909:A 36.2071 
*END

*D_NET *244 0.000591037
*CONN
*I *909:B I *D sky130_fd_sc_hd__nand4_1
*I *906:Y O *D sky130_fd_sc_hd__a22oi_1
*CAP
1 *909:B 0.000295518
2 *906:Y 0.000295518
3 *909:B *910:C1 0
4 *909:B *936:A1 0
5 *909:B *936:C2 0
6 *909:B *942:B2 0
7 *909:B *273:19 0
8 *936:A2 *909:B 0
*RES
1 *906:Y *909:B 33.975 
*END

*D_NET *245 0.00193214
*CONN
*I *909:C I *D sky130_fd_sc_hd__nand4_1
*I *907:Y O *D sky130_fd_sc_hd__a222oi_1
*CAP
1 *909:C 0.00096607
2 *907:Y 0.00096607
3 *909:C *907:A1 0
4 *909:C *907:B2 0
5 *909:C *913:C2 0
6 *909:C *916:A 0
7 *909:C *936:B2 0
8 *909:C *938:B 0
9 *909:C *942:B2 0
10 *909:C *943:B2 0
11 *909:C *945:B2 0
12 *909:C *284:26 0
13 *909:C *616:25 0
14 *909:C *616:39 0
15 *231:37 *909:C 0
*RES
1 *907:Y *909:C 38.6392 
*END

*D_NET *246 0.000581048
*CONN
*I *909:D I *D sky130_fd_sc_hd__nand4_1
*I *908:Y O *D sky130_fd_sc_hd__a222oi_1
*CAP
1 *909:D 0.000290524
2 *908:Y 0.000290524
3 *909:D *936:A1 0
4 *909:D *273:19 0
5 *908:A2 *909:D 0
6 *908:B1 *909:D 0
7 *222:30 *909:D 0
*RES
1 *908:Y *909:D 34.2607 
*END

*D_NET *247 0.000527796
*CONN
*I *910:C1 I *D sky130_fd_sc_hd__a221oi_1
*I *909:Y O *D sky130_fd_sc_hd__nand4_1
*CAP
1 *910:C1 0.000263898
2 *909:Y 0.000263898
3 *910:C1 *910:B2 0
4 *910:C1 *936:A1 0
5 *910:C1 *641:40 0
6 *906:A2 *910:C1 0
7 *909:B *910:C1 0
8 *912:B *910:C1 0
9 *936:A2 *910:C1 0
10 *230:66 *910:C1 0
11 *231:26 *910:C1 0
*RES
1 *909:Y *910:C1 33.4393 
*END

*D_NET *248 0.00393806
*CONN
*I *911:B I *D sky130_fd_sc_hd__nor2_1
*I *910:Y O *D sky130_fd_sc_hd__a221oi_1
*CAP
1 *911:B 0
2 *910:Y 2.56688e-05
3 *248:13 0.00194336
4 *248:7 0.00196903
5 *248:13 uo_out[0] 0
6 *248:13 *822:A 0
7 *248:13 *901:C2 0
8 *248:13 *920:A1 0
9 *248:13 *920:B2 0
10 *248:13 *941:B2 0
11 *248:13 *942:B2 0
12 *248:13 *1312:B 0
13 *248:13 *1318:B 0
14 *248:13 *1324:A 0
15 *248:13 *1391:SET_B 0
16 *248:13 *316:884 0
17 *248:13 *316:887 0
18 *248:13 *316:889 0
19 *248:13 *605:47 0
20 *248:13 *669:10 0
21 *248:13 *673:8 0
22 *248:13 *675:10 0
23 *248:13 *746:9 0
24 *248:13 *777:50 0
25 *904:A *248:13 0
26 *912:B *248:13 0
27 *920:A2 *248:13 0
28 *219:84 *248:13 0
29 *228:26 *248:13 0
30 *231:26 *248:13 0
31 *242:20 *248:13 0
*RES
1 *910:Y *248:7 14.3357 
2 *248:7 *248:13 48.2143 
3 *248:13 *911:B 9.3 
*END

*D_NET *249 0.000248132
*CONN
*I *918:A1 I *D sky130_fd_sc_hd__a31oi_1
*I *912:Y O *D sky130_fd_sc_hd__nand2_1
*CAP
1 *918:A1 0.000124066
2 *912:Y 0.000124066
3 *918:A1 *605:47 0
4 *912:B *918:A1 0
5 *918:B1 *918:A1 0
6 *231:26 *918:A1 0
*RES
1 *912:Y *918:A1 21.1893 
*END

*D_NET *250 0.000889995
*CONN
*I *918:A2 I *D sky130_fd_sc_hd__a31oi_1
*I *913:Y O *D sky130_fd_sc_hd__a222oi_1
*CAP
1 *918:A2 0.000444997
2 *913:Y 0.000444997
3 *918:A2 *942:B2 0
4 *918:A2 *606:36 0
5 *913:A2 *918:A2 0
6 *936:B1 *918:A2 0
7 *228:35 *918:A2 0
8 *231:26 *918:A2 0
*RES
1 *913:Y *918:A2 46.2429 
*END

*D_NET *251 0.000590502
*CONN
*I *916:A I *D sky130_fd_sc_hd__nand2_1
*I *914:Y O *D sky130_fd_sc_hd__a222oi_1
*CAP
1 *916:A 0.000295251
2 *914:Y 0.000295251
3 *916:A *943:B2 0
4 *907:A2 *916:A 0
5 *909:C *916:A 0
6 *236:57 *916:A 0
*RES
1 *914:Y *916:A 36.6526 
*END

*D_NET *252 0.00261238
*CONN
*I *916:B I *D sky130_fd_sc_hd__nand2_1
*I *915:Y O *D sky130_fd_sc_hd__a222oi_1
*CAP
1 *916:B 0.000254651
2 *915:Y 0.00105154
3 *252:14 0.00130619
4 *252:14 *900:C2 0
5 *252:14 *903:A1 0
6 *252:14 *908:A1 0
7 *252:14 *919:A 0
8 *252:14 *930:A1 0
9 *252:14 *930:C2 0
10 *252:14 *932:A3 0
11 *252:14 *1037:B 0
12 *252:14 *627:27 0
13 *252:14 *772:11 0
14 *915:B1 *252:14 0
15 *233:67 *252:14 0
16 *235:40 *252:14 0
17 *236:49 *252:14 0
18 *236:57 *916:B 0
*RES
1 *915:Y *252:14 45.6214 
2 *252:14 *916:B 28.175 
*END

*D_NET *253 0.000449039
*CONN
*I *917:C1 I *D sky130_fd_sc_hd__a221oi_1
*I *916:Y O *D sky130_fd_sc_hd__nand2_1
*CAP
1 *917:C1 0.000224519
2 *916:Y 0.000224519
3 *917:C1 *923:A1 0
4 *917:C1 *924:A 0
5 *917:C1 *924:C 0
6 *923:A2 *917:C1 0
7 *231:39 *917:C1 0
*RES
1 *916:Y *917:C1 32.6179 
*END

*D_NET *254 0.000795553
*CONN
*I *918:A3 I *D sky130_fd_sc_hd__a31oi_1
*I *917:Y O *D sky130_fd_sc_hd__a221oi_1
*CAP
1 *918:A3 0.000397777
2 *917:Y 0.000397777
3 *918:A3 *924:B 0
4 *918:A3 *942:B2 0
5 *918:A3 *944:B 0
6 *918:A3 *660:52 0
7 *918:B1 *918:A3 0
8 *228:35 *918:A3 0
*RES
1 *917:Y *918:A3 36.2562 
*END

*D_NET *255 0.00135144
*CONN
*I *924:A I *D sky130_fd_sc_hd__and3_1
*I *919:Y O *D sky130_fd_sc_hd__nand2_1
*CAP
1 *924:A 0.000675718
2 *919:Y 0.000675718
3 *924:A *923:A1 0
4 *924:A *924:C 0
5 *924:A *931:A 0
6 *917:C1 *924:A 0
7 *923:A2 *924:A 0
8 *929:B1 *924:A 0
9 *228:43 *924:A 0
10 *233:67 *924:A 0
11 *233:75 *924:A 0
*RES
1 *919:Y *924:A 42.6 
*END

*D_NET *256 0.000668364
*CONN
*I *925:A1 I *D sky130_fd_sc_hd__a31oi_1
*I *920:Y O *D sky130_fd_sc_hd__a222oi_1
*CAP
1 *925:A1 0.000334182
2 *920:Y 0.000334182
3 *925:A1 uo_out[3] 0
4 *925:A1 *932:A3 0
5 *953:B1 *925:A1 0
6 *228:35 *925:A1 0
*RES
1 *920:Y *925:A1 34.7071 
*END

*D_NET *257 0.00148474
*CONN
*I *925:A2 I *D sky130_fd_sc_hd__a31oi_1
*I *921:Y O *D sky130_fd_sc_hd__a22oi_1
*CAP
1 *925:A2 0.000742372
2 *921:Y 0.000742372
3 *925:A2 *907:C1 0
4 *925:A2 *913:C2 0
5 *925:A2 *917:B2 0
6 *925:A2 *925:A3 0
7 *925:A2 *659:16 0
8 *907:A2 *925:A2 0
9 *234:27 *925:A2 0
10 *234:29 *925:A2 0
11 *234:72 *925:A2 0
*RES
1 *921:Y *925:A2 43.444 
*END

*D_NET *258 0.00179866
*CONN
*I *924:B I *D sky130_fd_sc_hd__and3_1
*I *922:Y O *D sky130_fd_sc_hd__a222oi_1
*CAP
1 *924:B 0.000899329
2 *922:Y 0.000899329
3 *924:B *910:A1 0
4 *924:B *922:B2 0
5 *924:B *660:52 0
6 *924:B *682:66 0
7 *910:A2 *924:B 0
8 *918:A3 *924:B 0
9 *922:C1 *924:B 0
10 *936:A2 *924:B 0
11 *228:43 *924:B 0
*RES
1 *922:Y *924:B 46.35 
*END

*D_NET *259 0.000448752
*CONN
*I *924:C I *D sky130_fd_sc_hd__and3_1
*I *923:Y O *D sky130_fd_sc_hd__a222oi_1
*CAP
1 *924:C 0.000224376
2 *923:Y 0.000224376
3 *924:C *923:C2 0
4 *924:C *939:A3 0
5 *924:C *606:36 0
6 *917:C1 *924:C 0
7 *924:A *924:C 0
8 *228:43 *924:C 0
9 *231:50 *924:C 0
*RES
1 *923:Y *924:C 41.475 
*END

*D_NET *260 0.000358421
*CONN
*I *925:A3 I *D sky130_fd_sc_hd__a31oi_1
*I *924:X O *D sky130_fd_sc_hd__and3_1
*CAP
1 *925:A3 0.00017921
2 *924:X 0.00017921
3 *925:A3 uo_out[5] 0
4 *925:A3 *932:A3 0
5 *925:A3 *606:36 0
6 *925:A2 *925:A3 0
7 *953:B1 *925:A3 0
8 *231:50 *925:A3 0
9 *234:27 *925:A3 0
*RES
1 *924:X *925:A3 31.6714 
*END

*D_NET *261 0.000723671
*CONN
*I *931:A I *D sky130_fd_sc_hd__and3_1
*I *926:Y O *D sky130_fd_sc_hd__nand2_1
*CAP
1 *931:A 0.000361835
2 *926:Y 0.000361835
3 *931:A *919:A 0
4 *931:A *923:A1 0
5 *931:A *345:11 0
6 *924:A *931:A 0
7 *233:67 *931:A 0
*RES
1 *926:Y *931:A 35.3946 
*END

*D_NET *262 0.00207756
*CONN
*I *932:A1 I *D sky130_fd_sc_hd__a31oi_1
*I *927:Y O *D sky130_fd_sc_hd__a222oi_1
*CAP
1 *932:A1 0.00103878
2 *927:Y 0.00103878
3 *932:A1 uo_out[2] 0
4 *932:A1 *920:C2 0
5 *932:A1 *932:A2 0
6 *932:A1 *269:20 0
7 *932:A1 *765:125 0
8 *920:A2 *932:A1 0
9 *226:22 *932:A1 0
10 *228:19 *932:A1 0
*RES
1 *927:Y *932:A1 39.159 
*END

*D_NET *263 0.000444151
*CONN
*I *932:A2 I *D sky130_fd_sc_hd__a31oi_1
*I *928:Y O *D sky130_fd_sc_hd__a22oi_1
*CAP
1 *932:A2 0.000222075
2 *928:Y 0.000222075
3 *932:A2 *928:A1 0
4 *932:A2 *932:A3 0
5 *932:A1 *932:A2 0
6 *949:A2 *932:A2 0
7 *219:20 *932:A2 0
8 *232:37 *932:A2 0
*RES
1 *928:Y *932:A2 32.3679 
*END

*D_NET *264 0.000452626
*CONN
*I *931:B I *D sky130_fd_sc_hd__and3_1
*I *929:Y O *D sky130_fd_sc_hd__a222oi_1
*CAP
1 *931:B 0.000226313
2 *929:Y 0.000226313
3 *931:B *938:C 0
4 *931:B *359:31 0
*RES
1 *929:Y *931:B 23.3857 
*END

*D_NET *265 0.000485681
*CONN
*I *931:C I *D sky130_fd_sc_hd__and3_1
*I *930:Y O *D sky130_fd_sc_hd__a222oi_1
*CAP
1 *931:C 0.00024284
2 *930:Y 0.00024284
3 *931:C *936:A1 0
4 *931:C *359:31 0
5 *929:B1 *931:C 0
6 *236:49 *931:C 0
*RES
1 *930:Y *931:C 32.7518 
*END

*D_NET *266 0.00188707
*CONN
*I *932:A3 I *D sky130_fd_sc_hd__a31oi_1
*I *931:X O *D sky130_fd_sc_hd__and3_1
*CAP
1 *932:A3 0.000943536
2 *931:X 0.000943536
3 *932:A3 *917:A1 0
4 *932:A3 *943:B2 0
5 *932:A3 *359:31 0
6 *932:A3 *660:52 0
7 *913:C1 *932:A3 0
8 *925:A1 *932:A3 0
9 *925:A3 *932:A3 0
10 *929:B1 *932:A3 0
11 *932:A2 *932:A3 0
12 *953:B1 *932:A3 0
13 *219:24 *932:A3 0
14 *232:37 *932:A3 0
15 *234:27 *932:A3 0
16 *234:29 *932:A3 0
17 *235:40 *932:A3 0
18 *252:14 *932:A3 0
*RES
1 *931:X *932:A3 48.9393 
*END

*D_NET *267 0.000715428
*CONN
*I *938:A I *D sky130_fd_sc_hd__and3_1
*I *933:Y O *D sky130_fd_sc_hd__nand2_1
*CAP
1 *938:A 0.000357714
2 *933:Y 0.000357714
3 *938:A *914:A1 0
4 *938:A *923:A1 0
5 *938:A *929:A1 0
6 *938:A *929:B2 0
7 *938:A *938:B 0
8 *938:A *938:C 0
9 *938:A *939:A3 0
10 *222:65 *938:A 0
11 *235:41 *938:A 0
*RES
1 *933:Y *938:A 35.4929 
*END

*D_NET *268 0.000320004
*CONN
*I *939:A1 I *D sky130_fd_sc_hd__a31oi_1
*I *934:Y O *D sky130_fd_sc_hd__a222oi_1
*CAP
1 *939:A1 0.000160002
2 *934:Y 0.000160002
3 *934:B1 *939:A1 0
4 *934:C1 *939:A1 0
*RES
1 *934:Y *939:A1 22.0643 
*END

*D_NET *269 0.00382262
*CONN
*I *939:A2 I *D sky130_fd_sc_hd__a31oi_1
*I *935:Y O *D sky130_fd_sc_hd__a22oi_1
*CAP
1 *939:A2 0
2 *935:Y 0.00191131
3 *269:20 0.00191131
4 *269:20 *884:B 0
5 *269:20 *897:B 0
6 *269:20 *913:B2 0
7 *269:20 *920:C2 0
8 *269:20 *928:A1 0
9 *269:20 *934:A1 0
10 *269:20 *939:A3 0
11 *269:20 *949:A1 0
12 *269:20 *605:47 0
13 *269:20 *672:15 0
14 *269:20 *679:34 0
15 *269:20 *728:41 0
16 *269:20 *765:108 0
17 *269:20 *765:125 0
18 *885:A *269:20 0
19 *895:A *269:20 0
20 *900:B1 *269:20 0
21 *922:B1 *269:20 0
22 *932:A1 *269:20 0
23 *223:9 *269:20 0
24 *224:33 *269:20 0
25 *231:50 *269:20 0
26 *231:67 *269:20 0
27 *236:18 *269:20 0
*RES
1 *935:Y *269:20 47.683 
2 *269:20 *939:A2 9.3 
*END

*D_NET *270 0.00111054
*CONN
*I *938:B I *D sky130_fd_sc_hd__and3_1
*I *936:Y O *D sky130_fd_sc_hd__a222oi_1
*CAP
1 *938:B 0.000555269
2 *936:Y 0.000555269
3 *938:B *914:A1 0
4 *938:B *938:C 0
5 *938:B *616:25 0
6 *938:B *616:39 0
7 *909:C *938:B 0
8 *938:A *938:B 0
9 *222:65 *938:B 0
*RES
1 *936:Y *938:B 38.659 
*END

*D_NET *271 0.000622596
*CONN
*I *938:C I *D sky130_fd_sc_hd__and3_1
*I *937:Y O *D sky130_fd_sc_hd__a222oi_1
*CAP
1 *938:C 0.000311298
2 *937:Y 0.000311298
3 *938:C *914:A1 0
4 *938:C *359:31 0
5 *931:B *938:C 0
6 *938:A *938:C 0
7 *938:B *938:C 0
*RES
1 *937:Y *938:C 34.2786 
*END

*D_NET *272 0.00121399
*CONN
*I *939:A3 I *D sky130_fd_sc_hd__a31oi_1
*I *938:X O *D sky130_fd_sc_hd__and3_1
*CAP
1 *939:A3 0.000606997
2 *938:X 0.000606997
3 *939:A3 *914:A1 0
4 *939:A3 *914:B2 0
5 *921:B1 *939:A3 0
6 *924:C *939:A3 0
7 *938:A *939:A3 0
8 *222:65 *939:A3 0
9 *228:54 *939:A3 0
10 *231:50 *939:A3 0
11 *234:72 *939:A3 0
12 *235:41 *939:A3 0
13 *269:20 *939:A3 0
*RES
1 *938:X *939:A3 41.1357 
*END

*D_NET *273 0.00150953
*CONN
*I *944:A I *D sky130_fd_sc_hd__nand4_1
*I *940:Y O *D sky130_fd_sc_hd__a22oi_1
*CAP
1 *944:A 0
2 *940:Y 0.000754767
3 *273:19 0.000754767
4 *273:19 *908:A1 0
5 *273:19 *908:C2 0
6 *273:19 *936:B2 0
7 *273:19 *940:B2 0
8 *273:19 *942:A1 0
9 *273:19 *942:B2 0
10 *273:19 *943:C2 0
11 *273:19 *1037:B 0
12 *906:A2 *273:19 0
13 *908:B1 *273:19 0
14 *909:B *273:19 0
15 *909:D *273:19 0
16 *940:B1 *273:19 0
*RES
1 *940:Y *273:19 44.0857 
2 *273:19 *944:A 9.3 
*END

*D_NET *274 0.00113047
*CONN
*I *944:B I *D sky130_fd_sc_hd__nand4_1
*I *941:Y O *D sky130_fd_sc_hd__a22oi_1
*CAP
1 *944:B 0.000565233
2 *941:Y 0.000565233
3 *944:B *920:C2 0
4 *944:B *942:B2 0
5 *918:A3 *944:B 0
6 *918:B1 *944:B 0
7 *229:51 *944:B 0
8 *229:56 *944:B 0
9 *230:52 *944:B 0
*RES
1 *941:Y *944:B 40.3098 
*END

*D_NET *275 0.000412849
*CONN
*I *944:C I *D sky130_fd_sc_hd__nand4_1
*I *942:Y O *D sky130_fd_sc_hd__a222oi_1
*CAP
1 *944:C 0.000206425
2 *942:Y 0.000206425
3 *906:A2 *944:C 0
4 *923:B1 *944:C 0
5 *936:B1 *944:C 0
6 *235:40 *944:C 0
*RES
1 *942:Y *944:C 32.0286 
*END

*D_NET *276 0.000436382
*CONN
*I *944:D I *D sky130_fd_sc_hd__nand4_1
*I *943:Y O *D sky130_fd_sc_hd__a222oi_1
*CAP
1 *944:D 0.000218191
2 *943:Y 0.000218191
3 *944:D *943:B2 0
4 *936:B1 *944:D 0
5 *229:56 *944:D 0
6 *231:37 *944:D 0
7 *235:40 *944:D 0
*RES
1 *943:Y *944:D 32.5107 
*END

*D_NET *277 0.00157261
*CONN
*I *945:C1 I *D sky130_fd_sc_hd__a221oi_1
*I *944:Y O *D sky130_fd_sc_hd__nand4_1
*CAP
1 *945:C1 0
2 *944:Y 0.000786303
3 *277:16 0.000786303
4 *277:16 *923:A1 0
5 *277:16 *945:B2 0
6 *277:16 *606:36 0
7 *923:B1 *277:16 0
8 *945:A2 *277:16 0
9 *228:43 *277:16 0
10 *231:50 *277:16 0
*RES
1 *944:Y *277:16 43.9786 
2 *277:16 *945:C1 9.3 
*END

*D_NET *278 0.0042044
*CONN
*I *946:B I *D sky130_fd_sc_hd__nor2_1
*I *945:Y O *D sky130_fd_sc_hd__a221oi_1
*CAP
1 *946:B 2.0535e-05
2 *945:Y 6.50276e-05
3 *278:11 0.00203717
4 *278:7 0.00208167
5 *278:11 uio_out[5] 0
6 *278:11 *934:A1 0
7 *278:11 *934:B2 0
8 *278:11 *949:B2 0
9 *278:11 *953:A2 0
10 *278:11 *977:A 0
11 *278:11 *1002:A 0
12 *278:11 *1002:B 0
13 *278:11 *1308:A1 0
14 *278:11 *1321:A 0
15 *278:11 *284:26 0
16 *278:11 *315:29 0
17 *278:11 *315:53 0
18 *278:11 *588:14 0
19 *278:11 *679:34 0
20 *278:11 *747:6 0
21 *278:11 *750:8 0
22 *934:C1 *278:11 0
23 *945:A2 *278:7 0
24 *946:A *278:11 0
25 *1384:D *278:11 0
26 *228:54 *278:11 0
27 *234:63 *278:11 0
*RES
1 *945:Y *278:7 15.1571 
2 *278:7 *278:11 49.9107 
3 *278:11 *946:B 9.72857 
*END

*D_NET *279 9.06964e-05
*CONN
*I *952:A I *D sky130_fd_sc_hd__and3_1
*I *947:Y O *D sky130_fd_sc_hd__nand2_1
*CAP
1 *952:A 4.53482e-05
2 *947:Y 4.53482e-05
*RES
1 *947:Y *952:A 19.5464 
*END

*D_NET *280 0.000668364
*CONN
*I *953:A1 I *D sky130_fd_sc_hd__a31oi_1
*I *948:Y O *D sky130_fd_sc_hd__a222oi_1
*CAP
1 *953:A1 0.000334182
2 *948:Y 0.000334182
3 *953:A1 *1031:C 0
4 *953:A1 *1253:A 0
5 *232:37 *953:A1 0
*RES
1 *948:Y *953:A1 34.7071 
*END

*D_NET *281 0.000301361
*CONN
*I *953:A2 I *D sky130_fd_sc_hd__a31oi_1
*I *949:Y O *D sky130_fd_sc_hd__a22oi_1
*CAP
1 *953:A2 0.00015068
2 *949:Y 0.00015068
3 *953:A2 *679:34 0
4 *232:37 *953:A2 0
5 *278:11 *953:A2 0
*RES
1 *949:Y *953:A2 30.9036 
*END

*D_NET *282 0.000490799
*CONN
*I *952:B I *D sky130_fd_sc_hd__and3_1
*I *950:Y O *D sky130_fd_sc_hd__a222oi_1
*CAP
1 *952:B 0.000245399
2 *950:Y 0.000245399
3 *233:29 *952:B 0
4 *236:30 *952:B 0
*RES
1 *950:Y *952:B 42.0286 
*END

*D_NET *283 0.00025623
*CONN
*I *952:C I *D sky130_fd_sc_hd__and3_1
*I *951:Y O *D sky130_fd_sc_hd__a222oi_1
*CAP
1 *952:C 0.000128115
2 *951:Y 0.000128115
3 *952:C *947:A 0
4 *227:49 *952:C 0
5 *233:29 *952:C 0
*RES
1 *951:Y *952:C 30.4571 
*END

*D_NET *284 0.0038771
*CONN
*I *953:A3 I *D sky130_fd_sc_hd__a31oi_1
*I *952:X O *D sky130_fd_sc_hd__and3_1
*CAP
1 *953:A3 2.56688e-05
2 *952:X 0.00191288
3 *284:26 0.00193855
4 *284:26 uo_out[3] 0
5 *284:26 uo_out[4] 0
6 *284:26 uo_out[5] 0
7 *284:26 *898:A1 0
8 *284:26 *900:C2 0
9 *284:26 *903:B2 0
10 *284:26 *906:A1 0
11 *284:26 *917:A1 0
12 *284:26 *920:C2 0
13 *284:26 *934:B2 0
14 *284:26 *936:B2 0
15 *284:26 *942:B2 0
16 *284:26 *949:A1 0
17 *284:26 *1045:C 0
18 *284:26 *616:39 0
19 *284:26 *765:11 0
20 *284:26 *765:97 0
21 *909:C *284:26 0
22 *948:A2 *284:26 0
23 *222:19 *284:26 0
24 *230:45 *284:26 0
25 *230:52 *284:26 0
26 *231:37 *284:26 0
27 *234:27 *284:26 0
28 *236:18 *284:26 0
29 *236:30 *284:26 0
30 *278:11 *284:26 0
*RES
1 *952:X *284:26 48.7098 
2 *284:26 *953:A3 14.3357 
*END

*D_NET *285 0.00211689
*CONN
*I *963:B I *D sky130_fd_sc_hd__xnor2_1
*I *965:A2 I *D sky130_fd_sc_hd__a21o_1
*I *955:C I *D sky130_fd_sc_hd__nand3_1
*I *961:SLEEP I *D sky130_fd_sc_hd__lpflow_inputiso1p_1
*I *954:X O *D sky130_fd_sc_hd__and3_1
*CAP
1 *963:B 0.000242998
2 *965:A2 1.68986e-05
3 *955:C 0.000183104
4 *961:SLEEP 0.000101855
5 *954:X 0
6 *285:23 0.000396369
7 *285:7 0.000615445
8 *285:4 0.000560221
9 *955:C *955:A 0
10 *955:C *967:A2 0
11 *955:C *286:7 0
12 *961:SLEEP *837:A1 0
13 *961:SLEEP *837:B1_N 0
14 *961:SLEEP *715:22 0
15 *961:SLEEP *717:8 0
16 *963:B *954:B 0
17 *963:B *959:B 0
18 *963:B *960:A2 0
19 *963:B *714:26 0
20 *963:B *714:28 0
21 *285:7 *836:A 0
22 *285:7 *837:B1_N 0
23 *285:7 *954:B 0
24 *285:7 *954:C 0
25 *285:7 *714:28 0
26 *285:7 *714:30 0
27 *285:23 *837:A1 0
28 *285:23 *837:B1_N 0
29 *285:23 *966:A 0
30 *837:A2 *285:7 0
31 *839:A1 *961:SLEEP 0
32 *839:A1 *285:23 0
*RES
1 *954:X *285:4 9.3 
2 *285:4 *285:7 6.71429 
3 *285:7 *961:SLEEP 20.55 
4 *285:7 *285:23 4.39286 
5 *285:23 *955:C 13.1214 
6 *285:23 *965:A2 9.72857 
7 *285:4 *963:B 14.3714 
*END

*D_NET *286 0.00153071
*CONN
*I *966:A I *D sky130_fd_sc_hd__nand2_1
*I *956:SLEEP I *D sky130_fd_sc_hd__lpflow_isobufsrc_1
*I *968:B I *D sky130_fd_sc_hd__xor2_1
*I *955:Y O *D sky130_fd_sc_hd__nand3_1
*CAP
1 *966:A 0.000218185
2 *956:SLEEP 1.75403e-05
3 *968:B 0.000154868
4 *955:Y 0
5 *286:7 0.000547173
6 *286:4 0.000592949
7 *956:SLEEP *968:A 0
8 *966:A *955:A 0
9 *966:A *966:B 0
10 *968:B *968:A 0
11 *968:B *287:10 0
12 *286:7 *955:A 0
13 *286:7 *966:B 0
14 *286:7 *287:10 0
15 *955:C *286:7 0
16 *285:23 *966:A 0
*RES
1 *955:Y *286:4 9.3 
2 *286:4 *286:7 7.94643 
3 *286:7 *968:B 12.7464 
4 *286:7 *956:SLEEP 9.72857 
5 *286:4 *966:A 13.8536 
*END

*D_NET *287 0.00229848
*CONN
*I *957:C I *D sky130_fd_sc_hd__nand3_1
*I *972:A2 I *D sky130_fd_sc_hd__a21oi_1
*I *971:A3 I *D sky130_fd_sc_hd__a31oi_1
*I *970:A2 I *D sky130_fd_sc_hd__o21ai_0
*I *956:X O *D sky130_fd_sc_hd__lpflow_isobufsrc_1
*CAP
1 *957:C 0.000144601
2 *972:A2 0
3 *971:A3 0
4 *970:A2 6.50276e-05
5 *956:X 0.000446704
6 *287:20 0.000454191
7 *287:13 0.000492908
8 *287:10 0.00069505
9 *957:C *719:15 0
10 *957:C *720:40 0
11 *970:A2 *970:A1 0
12 *287:10 *968:A 0
13 *287:13 *719:15 0
14 *287:13 *720:40 0
15 *287:20 *972:B1 0
16 *287:20 *719:20 0
17 *287:20 *720:40 0
18 *968:B *287:10 0
19 *970:B1 *287:20 0
20 *971:A1 *287:20 0
21 *286:7 *287:10 0
*RES
1 *956:X *287:10 27.8536 
2 *287:10 *287:13 2.19643 
3 *287:13 *287:20 17.3214 
4 *287:20 *970:A2 10.6571 
5 *287:20 *971:A3 9.3 
6 *287:13 *972:A2 9.3 
7 *287:10 *957:C 12.4429 
*END

*D_NET *288 0.00400853
*CONN
*I *958:C I *D sky130_fd_sc_hd__nand3_1
*I *960:A1 I *D sky130_fd_sc_hd__a21oi_1
*I *964:A1 I *D sky130_fd_sc_hd__a21oi_1
*I *962:A1 I *D sky130_fd_sc_hd__a21oi_1
*I *967:A1 I *D sky130_fd_sc_hd__a21oi_1
*I *969:A1 I *D sky130_fd_sc_hd__a21oi_1
*I *957:Y O *D sky130_fd_sc_hd__nand3_1
*CAP
1 *958:C 6.28885e-05
2 *960:A1 0.000213051
3 *964:A1 0.00026528
4 *962:A1 0.000146951
5 *967:A1 2.0535e-05
6 *969:A1 2.0535e-05
7 *957:Y 0.000182736
8 *288:53 0.000527882
9 *288:50 0.000323544
10 *288:34 0.000793105
11 *288:19 0.000852168
12 *288:11 0.000599854
13 *958:C *842:A 0
14 *958:C *713:13 0
15 *960:A1 *842:A 0
16 *960:A1 *713:13 0
17 *962:A1 *715:10 0
18 *964:A1 *836:B 0
19 *964:A1 *841:A1 0
20 *964:A1 *842:B 0
21 *964:A1 *713:16 0
22 *964:A1 *713:21 0
23 *288:11 *719:8 0
24 *288:11 *720:40 0
25 *288:34 *842:B 0
26 *288:34 *842:C 0
27 *288:34 *843:A1 0
28 *288:34 *715:10 0
29 *288:34 *715:20 0
30 *288:50 *842:A 0
31 *288:53 *713:16 0
32 *288:53 *715:20 0
33 *842:D *967:A1 0
34 *842:D *288:34 0
35 *843:A2 *288:34 0
36 *967:B1 *288:19 0
37 *973:A *969:A1 0
38 *973:A *288:11 0
39 *1375:D *958:C 0
40 *1376:D *960:A1 0
41 *1376:D *288:53 0
42 *1378:D *964:A1 0
43 *1379:D *288:19 0
44 *1380:D *288:11 0
45 *181:19 *962:A1 0
46 *181:64 *969:A1 0
47 *181:64 *288:11 0
48 *181:64 *288:19 0
49 *188:15 *288:11 0
50 *191:11 *288:34 0
*RES
1 *957:Y *288:11 22.2464 
2 *288:11 *969:A1 9.72857 
3 *288:11 *288:19 8.33929 
4 *288:19 *967:A1 9.72857 
5 *288:19 *288:34 13.8661 
6 *288:34 *962:A1 17.0589 
7 *288:34 *288:50 9.13393 
8 *288:50 *288:53 5.83929 
9 *288:53 *964:A1 19.4607 
10 *288:53 *960:A1 18.2464 
11 *288:50 *958:C 10.675 
*END

*D_NET *289 0.000481601
*CONN
*I *960:A2 I *D sky130_fd_sc_hd__a21oi_1
*I *959:Y O *D sky130_fd_sc_hd__xnor2_1
*CAP
1 *960:A2 0.0002408
2 *959:Y 0.0002408
3 *960:A2 *964:A2 0
4 *960:A2 *714:8 0
5 *960:A2 *714:26 0
6 *963:B *960:A2 0
7 *1378:D *960:A2 0
*RES
1 *959:Y *960:A2 32.9214 
*END

*D_NET *290 0.000449353
*CONN
*I *962:A2 I *D sky130_fd_sc_hd__a21oi_1
*I *961:X O *D sky130_fd_sc_hd__lpflow_inputiso1p_1
*CAP
1 *962:A2 0.000224677
2 *961:X 0.000224677
3 *962:A2 *715:10 0
4 *962:A2 *715:20 0
5 *962:A2 *717:8 0
6 *190:7 *962:A2 0
7 *191:11 *962:A2 0
*RES
1 *961:X *962:A2 32.6179 
*END

*D_NET *291 0.000622765
*CONN
*I *964:A2 I *D sky130_fd_sc_hd__a21oi_1
*I *963:Y O *D sky130_fd_sc_hd__xnor2_1
*CAP
1 *964:A2 0.000311382
2 *963:Y 0.000311382
3 *964:A2 *713:46 0
4 *964:A2 *714:26 0
5 *960:A2 *964:A2 0
6 *1378:D *964:A2 0
*RES
1 *963:Y *964:A2 34.2964 
*END

*D_NET *292 0.000289202
*CONN
*I *966:B I *D sky130_fd_sc_hd__nand2_1
*I *965:X O *D sky130_fd_sc_hd__a21o_1
*CAP
1 *966:B 0.000144601
2 *965:X 0.000144601
3 *966:B *955:A 0
4 *966:A *966:B 0
5 *286:7 *966:B 0
*RES
1 *965:X *966:B 21.6179 
*END

*D_NET *293 0.000757596
*CONN
*I *967:A2 I *D sky130_fd_sc_hd__a21oi_1
*I *966:Y O *D sky130_fd_sc_hd__nand2_1
*CAP
1 *967:A2 0.000378798
2 *966:Y 0.000378798
3 *967:A2 *843:A1 0
4 *955:C *967:A2 0
5 *1379:D *967:A2 0
*RES
1 *966:Y *967:A2 35.7964 
*END

*D_NET *294 0.000465625
*CONN
*I *969:A2 I *D sky130_fd_sc_hd__a21oi_1
*I *968:X O *D sky130_fd_sc_hd__xor2_1
*CAP
1 *969:A2 0.000232812
2 *968:X 0.000232812
3 *969:A2 *718:8 0
4 *969:A2 *718:12 0
5 *969:A2 *719:12 0
6 *188:15 *969:A2 0
*RES
1 *968:X *969:A2 32.8857 
*END

*D_NET *295 0.000249843
*CONN
*I *971:B1 I *D sky130_fd_sc_hd__a31oi_1
*I *970:Y O *D sky130_fd_sc_hd__o21ai_0
*CAP
1 *971:B1 0.000124921
2 *970:Y 0.000124921
3 *971:B1 *970:A1 0
4 *971:A1 *971:B1 0
5 *1381:D *971:B1 0
*RES
1 *970:Y *971:B1 21.2071 
*END

*D_NET *296 0.000247169
*CONN
*I *973:B I *D sky130_fd_sc_hd__nor2_1
*I *972:Y O *D sky130_fd_sc_hd__a21oi_1
*CAP
1 *973:B 0.000123585
2 *972:Y 0.000123585
3 *973:B *720:20 0
4 *973:B *720:40 0
5 *1382:D *973:B 0
*RES
1 *972:Y *973:B 30.225 
*END

*D_NET *297 0.00158073
*CONN
*I *976:B I *D sky130_fd_sc_hd__nand2_1
*I *975:B2 I *D sky130_fd_sc_hd__a22o_1
*I *974:Y O *D sky130_fd_sc_hd__nor3_1
*CAP
1 *976:B 0.000152586
2 *975:B2 0.000398631
3 *974:Y 0.000239147
4 *297:5 0.000790365
5 *975:B2 *998:A1 0
6 *975:B2 *998:B1 0
7 *975:B2 *1496:CLK 0
8 *975:B2 *777:46 0
9 *976:B *998:B1 0
10 *976:B *1496:CLK 0
11 *870:A *976:B 0
12 *975:B1 *975:B2 0
13 *174:6 *975:B2 0
14 *242:20 *975:B2 0
*RES
1 *974:Y *297:5 14.3536 
2 *297:5 *975:B2 27.0143 
3 *297:5 *976:B 21.7643 
*END

*D_NET *298 0.00178484
*CONN
*I *977:B I *D sky130_fd_sc_hd__nor2_1
*I *976:Y O *D sky130_fd_sc_hd__nand2_1
*CAP
1 *977:B 0.000892418
2 *976:Y 0.000892418
3 *977:B *977:A 0
4 *977:B *998:A1 0
5 *977:B *299:8 0
6 *998:B2 *977:B 0
7 *1389:D *977:B 0
8 *174:17 *977:B 0
9 *242:20 *977:B 0
*RES
1 *976:Y *977:B 37.225 
*END

*D_NET *299 0.00108522
*CONN
*I *979:A2 I *D sky130_fd_sc_hd__a21oi_1
*I *978:A2 I *D sky130_fd_sc_hd__o21ai_0
*I *977:Y O *D sky130_fd_sc_hd__nor2_1
*CAP
1 *979:A2 0.000369456
2 *978:A2 0
3 *977:Y 0.000173152
4 *299:8 0.000542608
5 *979:A2 uio_out[4] 0
6 *979:A2 *977:A 0
7 *979:A2 *979:B1 0
8 *979:A2 *723:53 0
9 *299:8 *977:A 0
10 *299:8 *978:A1 0
11 *299:8 *1391:CLK 0
12 *299:8 *747:6 0
13 *977:B *299:8 0
14 *219:20 *979:A2 0
*RES
1 *977:Y *299:8 17.5143 
2 *299:8 *978:A2 13.8 
3 *299:8 *979:A2 21.8893 
*END

*D_NET *300 0.000816121
*CONN
*I *979:B1 I *D sky130_fd_sc_hd__a21oi_1
*I *978:Y O *D sky130_fd_sc_hd__o21ai_0
*CAP
1 *979:B1 0.00040806
2 *978:Y 0.00040806
3 *979:B1 *822:A 0
4 *979:B1 *979:A1 0
5 *979:B1 *723:53 0
6 *979:A2 *979:B1 0
7 *219:20 *979:B1 0
*RES
1 *978:Y *979:B1 36.4214 
*END

*D_NET *301 0.000221292
*CONN
*I *982:A1 I *D sky130_fd_sc_hd__a21oi_1
*I *980:Y O *D sky130_fd_sc_hd__nand2_1
*CAP
1 *982:A1 0.000110646
2 *980:Y 0.000110646
3 *858:B *982:A1 0
4 *981:B1 *982:A1 0
5 *207:11 *982:A1 0
*RES
1 *980:Y *982:A1 29.9929 
*END

*D_NET *302 0.000617843
*CONN
*I *987:B2 I *D sky130_fd_sc_hd__a221oi_1
*I *982:A2 I *D sky130_fd_sc_hd__a21oi_1
*I *981:Y O *D sky130_fd_sc_hd__o21ai_0
*CAP
1 *987:B2 9.28354e-05
2 *982:A2 0
3 *981:Y 0.000216086
4 *302:9 0.000308922
5 *981:B1 *302:9 0
6 *987:B1 *987:B2 0
7 *205:5 *987:B2 0
8 *205:5 *302:9 0
9 *210:44 *302:9 0
*RES
1 *981:Y *302:9 22.9429 
2 *302:9 *982:A2 9.3 
3 *302:9 *987:B2 11.5143 
*END

*D_NET *303 0.000655747
*CONN
*I *983:B I *D sky130_fd_sc_hd__nor2_1
*I *982:Y O *D sky130_fd_sc_hd__a21oi_1
*CAP
1 *983:B 0.000327874
2 *982:Y 0.000327874
3 *983:A *983:B 0
4 *203:18 *983:B 0
5 *205:5 *983:B 0
*RES
1 *982:Y *983:B 34.6 
*END

*D_NET *304 0.00152534
*CONN
*I *993:A1 I *D sky130_fd_sc_hd__o31ai_1
*I *985:A2 I *D sky130_fd_sc_hd__o21ai_0
*I *983:Y O *D sky130_fd_sc_hd__nor2_1
*CAP
1 *993:A1 0.000260287
2 *985:A2 0.000358637
3 *983:Y 0.000143745
4 *304:5 0.000762669
5 *985:A2 *826:A1 0
6 *985:A2 *861:A 0
7 *985:A2 *599:18 0
8 *985:A2 *599:53 0
9 *985:A2 *599:64 0
10 *985:A2 *601:18 0
11 *985:A2 *779:103 0
12 *985:A2 *779:110 0
13 *993:A1 *990:A1 0
14 *993:A1 *990:A2 0
15 *993:A1 *993:A2 0
16 *993:A1 *995:A2 0
17 *993:A1 *1387:CLK 0
18 *993:A1 *311:10 0
19 *993:A1 *599:64 0
20 *1387:D *993:A1 0
21 *178:14 *985:A2 0
*RES
1 *983:Y *304:5 12.3 
2 *304:5 *985:A2 26.3179 
3 *304:5 *993:A1 24.05 
*END

*D_NET *305 0.000208773
*CONN
*I *985:B1 I *D sky130_fd_sc_hd__o21ai_0
*I *984:Y O *D sky130_fd_sc_hd__nand2_1
*CAP
1 *985:B1 0.000104386
2 *984:Y 0.000104386
3 *985:B1 *599:11 0
4 *985:B1 *599:13 0
5 *1385:D *985:B1 0
6 *210:60 *985:B1 0
*RES
1 *984:Y *985:B1 20.7786 
*END

*D_NET *306 0.000747082
*CONN
*I *989:A I *D sky130_fd_sc_hd__nand2_1
*I *986:Y O *D sky130_fd_sc_hd__nand2_1
*CAP
1 *989:A 0.000373541
2 *986:Y 0.000373541
3 *989:A *996:B 0
4 *989:A *600:5 0
5 *989:A *600:52 0
6 *1386:D *989:A 0
7 *210:63 *989:A 0
*RES
1 *986:Y *989:A 35.5286 
*END

*D_NET *307 0.000175403
*CONN
*I *988:B1 I *D sky130_fd_sc_hd__o21ai_0
*I *987:Y O *D sky130_fd_sc_hd__a221oi_1
*CAP
1 *988:B1 8.77017e-05
2 *987:Y 8.77017e-05
3 *988:B1 *987:A1 0
4 *988:B1 *600:23 0
5 *205:5 *988:B1 0
*RES
1 *987:Y *988:B1 20.3679 
*END

*D_NET *308 0.000550036
*CONN
*I *989:B I *D sky130_fd_sc_hd__nand2_1
*I *988:Y O *D sky130_fd_sc_hd__o21ai_0
*CAP
1 *989:B 0.000275018
2 *988:Y 0.000275018
3 *989:B *826:A1 0
4 *989:B *859:B 0
5 *989:B *861:A 0
6 *989:B *599:21 0
7 *989:B *599:53 0
8 *989:B *600:13 0
9 *989:B *601:18 0
10 *983:A *989:B 0
11 *178:14 *989:B 0
12 *204:8 *989:B 0
13 *205:5 *989:B 0
*RES
1 *988:Y *989:B 33.475 
*END

*D_NET *309 0.000562905
*CONN
*I *993:A2 I *D sky130_fd_sc_hd__o31ai_1
*I *990:Y O *D sky130_fd_sc_hd__a21oi_1
*CAP
1 *993:A2 0.000281452
2 *990:Y 0.000281452
3 *993:A2 *990:A1 0
4 *993:A2 *990:A2 0
5 *993:A2 *993:A3 0
6 *993:A2 *995:A1 0
7 *993:A2 *1387:CLK 0
8 *993:A2 *311:10 0
9 *993:A2 *602:11 0
10 *993:A1 *993:A2 0
11 *1387:D *993:A2 0
*RES
1 *990:Y *993:A2 33.5196 
*END

*D_NET *310 0.000535248
*CONN
*I *993:B1 I *D sky130_fd_sc_hd__o31ai_1
*I *991:Y O *D sky130_fd_sc_hd__nand2_1
*CAP
1 *993:B1 0.000267624
2 *991:Y 0.000267624
3 *993:B1 *993:A3 0
4 *993:B1 *995:A1 0
5 *993:B1 *311:10 0
6 *991:B *993:B1 0
*RES
1 *991:Y *993:B1 33.4571 
*END

*D_NET *311 0.000689166
*CONN
*I *993:A3 I *D sky130_fd_sc_hd__o31ai_1
*I *995:A2 I *D sky130_fd_sc_hd__o21ai_0
*I *992:X O *D sky130_fd_sc_hd__and3_1
*CAP
1 *993:A3 0.000122782
2 *995:A2 3.22476e-05
3 *992:X 0.000189553
4 *311:10 0.000344583
5 *993:A3 *826:B1 0
6 *993:A3 *995:A1 0
7 *311:10 *992:C 0
8 *991:B *995:A2 0
9 *993:A1 *995:A2 0
10 *993:A1 *311:10 0
11 *993:A2 *993:A3 0
12 *993:A2 *311:10 0
13 *993:B1 *993:A3 0
14 *993:B1 *311:10 0
15 *1387:D *993:A3 0
16 *1387:D *311:10 0
17 *210:63 *995:A2 0
*RES
1 *992:X *311:10 18.2286 
2 *311:10 *995:A2 14.5321 
3 *311:10 *993:A3 16.425 
*END

*D_NET *312 0.000210484
*CONN
*I *996:A I *D sky130_fd_sc_hd__nand2_1
*I *994:Y O *D sky130_fd_sc_hd__nand2_1
*CAP
1 *996:A 0.000105242
2 *994:Y 0.000105242
*RES
1 *994:Y *996:A 20.7964 
*END

*D_NET *313 0.000699631
*CONN
*I *996:B I *D sky130_fd_sc_hd__nand2_1
*I *995:Y O *D sky130_fd_sc_hd__o21ai_0
*CAP
1 *996:B 0.000349815
2 *995:Y 0.000349815
3 *996:B *994:A 0
4 *996:B *600:52 0
5 *989:A *996:B 0
6 *210:63 *996:B 0
*RES
1 *995:Y *996:B 35.2786 
*END

*D_NET *314 0.0013107
*CONN
*I *998:B1 I *D sky130_fd_sc_hd__a22o_1
*I *997:Y O *D sky130_fd_sc_hd__nor3_1
*CAP
1 *998:B1 0.00065535
2 *997:Y 0.00065535
3 *998:B1 *974:B 0
4 *998:B1 *998:A1 0
5 *998:B1 *1496:CLK 0
6 *998:B1 *592:80 0
7 *998:B1 *620:27 0
8 *998:B1 *777:46 0
9 *975:A2 *998:B1 0
10 *975:B1 *998:B1 0
11 *975:B2 *998:B1 0
12 *976:B *998:B1 0
13 *998:A2 *998:B1 0
14 *210:21 *998:B1 0
*RES
1 *997:Y *998:B1 41.3726 
*END

*D_NET *315 0.0751777
*CONN
*I *1331:B I *D sky130_fd_sc_hd__nand2_1
*I *1327:B I *D sky130_fd_sc_hd__nand2_1
*I *1303:B I *D sky130_fd_sc_hd__nand2_1
*I *1301:B I *D sky130_fd_sc_hd__nand2_1
*I *1297:B I *D sky130_fd_sc_hd__nand2_1
*I *1295:B I *D sky130_fd_sc_hd__nand2_1
*I *1255:B I *D sky130_fd_sc_hd__nand2_1
*I *1283:B I *D sky130_fd_sc_hd__nand2_1
*I *1279:B I *D sky130_fd_sc_hd__nand2_1
*I *1190:B I *D sky130_fd_sc_hd__nand2_1
*I *1277:B I *D sky130_fd_sc_hd__nand2_1
*I *1204:B I *D sky130_fd_sc_hd__nand2_1
*I *1097:B I *D sky130_fd_sc_hd__nand2_1
*I *1076:B I *D sky130_fd_sc_hd__nand2_1
*I *1115:B I *D sky130_fd_sc_hd__nand2_1
*I *1061:B I *D sky130_fd_sc_hd__nand2_1
*I *1147:B I *D sky130_fd_sc_hd__nand2_1
*I *1144:B I *D sky130_fd_sc_hd__nand2_1
*I *1132:B I *D sky130_fd_sc_hd__nand2_1
*I *1135:B I *D sky130_fd_sc_hd__nand2_1
*I *1138:B I *D sky130_fd_sc_hd__nand2_1
*I *1142:B I *D sky130_fd_sc_hd__nand2_1
*I *1058:B I *D sky130_fd_sc_hd__nand2_1
*I *1052:B I *D sky130_fd_sc_hd__nand2_1
*I *1214:B I *D sky130_fd_sc_hd__nand2_1
*I *1127:B I *D sky130_fd_sc_hd__nand2_1
*I *1226:B I *D sky130_fd_sc_hd__nand2_1
*I *1228:B I *D sky130_fd_sc_hd__nand2_1
*I *1129:B I *D sky130_fd_sc_hd__nand2_1
*I *1219:B I *D sky130_fd_sc_hd__nand2_1
*I *1217:B I *D sky130_fd_sc_hd__nand2_1
*I *1235:B I *D sky130_fd_sc_hd__nand2_1
*I *1243:B I *D sky130_fd_sc_hd__nand2_1
*I *1241:B I *D sky130_fd_sc_hd__nand2_1
*I *1237:B I *D sky130_fd_sc_hd__nand2_1
*I *1249:B I *D sky130_fd_sc_hd__nand2_1
*I *1247:B I *D sky130_fd_sc_hd__nand2_1
*I *1319:B I *D sky130_fd_sc_hd__nand2_1
*I *1315:B I *D sky130_fd_sc_hd__nand2_1
*I *1232:B I *D sky130_fd_sc_hd__nand2_1
*I *1124:B I *D sky130_fd_sc_hd__nand2_1
*I *1120:B I *D sky130_fd_sc_hd__nand2_1
*I *1222:B I *D sky130_fd_sc_hd__nand2_1
*I *1211:B I *D sky130_fd_sc_hd__nand2_1
*I *1207:B I *D sky130_fd_sc_hd__nand2_1
*I *1118:B I *D sky130_fd_sc_hd__nand2_1
*I *1055:B I *D sky130_fd_sc_hd__nand2_1
*I *1064:B I *D sky130_fd_sc_hd__nand2_1
*I *1073:B I *D sky130_fd_sc_hd__nand2_1
*I *1094:B I *D sky130_fd_sc_hd__nand2_1
*I *1091:B I *D sky130_fd_sc_hd__nand2_1
*I *1112:B I *D sky130_fd_sc_hd__nand2_1
*I *1067:B I *D sky130_fd_sc_hd__nand2_1
*I *1154:B I *D sky130_fd_sc_hd__nand2_1
*I *1150:B I *D sky130_fd_sc_hd__nand2_1
*I *1070:B I *D sky130_fd_sc_hd__nand2_1
*I *1088:B I *D sky130_fd_sc_hd__nand2_1
*I *1085:B I *D sky130_fd_sc_hd__nand2_1
*I *1082:B I *D sky130_fd_sc_hd__nand2_1
*I *1156:B I *D sky130_fd_sc_hd__nand2_1
*I *1079:B I *D sky130_fd_sc_hd__nand2_1
*I *1106:B I *D sky130_fd_sc_hd__nand2_1
*I *1103:B I *D sky130_fd_sc_hd__nand2_1
*I *1159:B I *D sky130_fd_sc_hd__nand2_1
*I *1109:B I *D sky130_fd_sc_hd__nand2_1
*I *1100:B I *D sky130_fd_sc_hd__nand2_1
*I *1202:B I *D sky130_fd_sc_hd__nand2_1
*I *1198:B I *D sky130_fd_sc_hd__nand2_1
*I *1163:B I *D sky130_fd_sc_hd__nand2_1
*I *1192:B I *D sky130_fd_sc_hd__nand2_1
*I *1195:B I *D sky130_fd_sc_hd__nand2_1
*I *1166:B I *D sky130_fd_sc_hd__nand2_1
*I *1184:B I *D sky130_fd_sc_hd__nand2_1
*I *1261:B I *D sky130_fd_sc_hd__nand2_1
*I *1265:B I *D sky130_fd_sc_hd__nand2_1
*I *1180:B I *D sky130_fd_sc_hd__nand2_1
*I *1267:B I *D sky130_fd_sc_hd__nand2_1
*I *1171:B I *D sky130_fd_sc_hd__nand2_1
*I *1174:B I *D sky130_fd_sc_hd__nand2_1
*I *1271:B I *D sky130_fd_sc_hd__nand2_1
*I *1273:B I *D sky130_fd_sc_hd__nand2_1
*I *1178:B I *D sky130_fd_sc_hd__nand2_1
*I *1169:B I *D sky130_fd_sc_hd__nand2_1
*I *1259:B I *D sky130_fd_sc_hd__nand2_1
*I *1291:B I *D sky130_fd_sc_hd__nand2_1
*I *1289:B I *D sky130_fd_sc_hd__nand2_1
*I *1187:B I *D sky130_fd_sc_hd__nand2_1
*I *1253:B I *D sky130_fd_sc_hd__nand2_1
*I *1285:B I *D sky130_fd_sc_hd__nand2_1
*I *1325:B I *D sky130_fd_sc_hd__nand2_1
*I *1002:B I *D sky130_fd_sc_hd__nand2_1
*I *1321:B I *D sky130_fd_sc_hd__nand2_1
*I *1313:B I *D sky130_fd_sc_hd__nand2_1
*I *1309:B I *D sky130_fd_sc_hd__nand2_1
*I *1307:B I *D sky130_fd_sc_hd__nand2_1
*I *1000:Y O *D sky130_fd_sc_hd__nor2_1
*CAP
1 *1331:B 0.000257543
2 *1327:B 4.53482e-05
3 *1303:B 4.53482e-05
4 *1301:B 2.0535e-05
5 *1297:B 4.53482e-05
6 *1295:B 0.000427771
7 *1255:B 0
8 *1283:B 4.62038e-05
9 *1279:B 0.000221321
10 *1190:B 0
11 *1277:B 0
12 *1204:B 0.000195846
13 *1097:B 2.56688e-05
14 *1076:B 0
15 *1115:B 0
16 *1061:B 4.32091e-05
17 *1147:B 0
18 *1144:B 0.000204495
19 *1132:B 0.00016753
20 *1135:B 7.27282e-06
21 *1138:B 0
22 *1142:B 2.56688e-05
23 *1058:B 4.53482e-05
24 *1052:B 0
25 *1214:B 0.000334694
26 *1127:B 0
27 *1226:B 0
28 *1228:B 0.00043573
29 *1129:B 0
30 *1219:B 0.000316582
31 *1217:B 0.000343521
32 *1235:B 2.0535e-05
33 *1243:B 0.000687068
34 *1241:B 2.0535e-05
35 *1237:B 0
36 *1249:B 3.50807e-05
37 *1247:B 6.13912e-05
38 *1319:B 0.000300844
39 *1315:B 0.000315791
40 *1232:B 8.84451e-05
41 *1124:B 0
42 *1120:B 0
43 *1222:B 0
44 *1211:B 1.94762e-05
45 *1207:B 0.000571547
46 *1118:B 0
47 *1055:B 0
48 *1064:B 1.21912e-05
49 *1073:B 3.50807e-05
50 *1094:B 0
51 *1091:B 0.000124771
52 *1112:B 0.000195371
53 *1067:B 2.56688e-05
54 *1154:B 0
55 *1150:B 0.000717167
56 *1070:B 0
57 *1088:B 1.21715e-05
58 *1085:B 2.56688e-05
59 *1082:B 0.000393172
60 *1156:B 0
61 *1079:B 2.0535e-05
62 *1106:B 0
63 *1103:B 0
64 *1159:B 0.000424978
65 *1109:B 0
66 *1100:B 0.000247863
67 *1202:B 2.41714e-05
68 *1198:B 2.56688e-05
69 *1163:B 0.000398973
70 *1192:B 2.56688e-05
71 *1195:B 4.3423e-05
72 *1166:B 2.0535e-05
73 *1184:B 0
74 *1261:B 0.000224888
75 *1265:B 3.50807e-05
76 *1180:B 0.000214383
77 *1267:B 0
78 *1171:B 0
79 *1174:B 2.0535e-05
80 *1271:B 0.000267574
81 *1273:B 0.0002073
82 *1178:B 0.000322421
83 *1169:B 0
84 *1259:B 0.000297852
85 *1291:B 2.56688e-05
86 *1289:B 0.000144601
87 *1187:B 2.0535e-05
88 *1253:B 0.000240003
89 *1285:B 0.000278612
90 *1325:B 0
91 *1002:B 0.000320514
92 *1321:B 1.32622e-05
93 *1313:B 7.74341e-05
94 *1309:B 0.000152429
95 *1307:B 1.21519e-05
96 *1000:Y 0.000281452
97 *315:1005 0.000452802
98 *315:981 0.000563175
99 *315:968 0.000706896
100 *315:956 0.000485984
101 *315:942 0.000401232
102 *315:941 0.000787275
103 *315:878 0.00072971
104 *315:876 0.000219441
105 *315:873 0.000859292
106 *315:867 0.000618553
107 *315:861 0.000848976
108 *315:826 0.0012736
109 *315:814 0.000872153
110 *315:774 0.00117301
111 *315:769 0.000918335
112 *315:762 0.000594481
113 *315:759 0.000674684
114 *315:751 0.000479647
115 *315:747 0.000573695
116 *315:742 0.000885531
117 *315:735 0.000567148
118 *315:726 0.000559247
119 *315:715 0.000426833
120 *315:710 0.000682382
121 *315:688 0.000666318
122 *315:686 0.00011229
123 *315:680 0.000627203
124 *315:672 0.0012095
125 *315:656 0.000905532
126 *315:653 0.000978515
127 *315:643 0.000787212
128 *315:637 0.00069532
129 *315:633 0.000558724
130 *315:607 0.000438144
131 *315:603 0.000368989
132 *315:591 0.00046924
133 *315:584 0.00103278
134 *315:573 0.000557814
135 *315:553 0.00125921
136 *315:542 0.000554211
137 *315:539 0.000711707
138 *315:527 0.000947299
139 *315:502 0.000805026
140 *315:495 0.000833309
141 *315:487 0.000411901
142 *315:481 0.000471795
143 *315:469 0.000461182
144 *315:449 0.000733295
145 *315:441 0.000573989
146 *315:438 0.000730569
147 *315:434 0.000615892
148 *315:423 0.000703515
149 *315:411 0.000703688
150 *315:408 0.000675201
151 *315:399 0.000656254
152 *315:373 0.00076161
153 *315:371 0.000930291
154 *315:364 0.000542994
155 *315:299 0.000355481
156 *315:292 0.00058533
157 *315:288 0.00107298
158 *315:285 0.000800818
159 *315:274 0.000470147
160 *315:243 0.000474874
161 *315:229 0.000797721
162 *315:227 0.000695624
163 *315:224 0.000545381
164 *315:213 0.000675368
165 *315:205 0.0010085
166 *315:199 0.00100769
167 *315:194 0.000696594
168 *315:169 0.000548979
169 *315:156 0.000813156
170 *315:145 0.000929119
171 *315:133 0.000944535
172 *315:132 0.00054975
173 *315:128 0.000331718
174 *315:126 0.000520792
175 *315:124 0.000572725
176 *315:115 0.00136877
177 *315:93 0.000718
178 *315:89 0.000802573
179 *315:87 0.000512698
180 *315:82 0.000417387
181 *315:57 0.000419339
182 *315:53 0.000590836
183 *315:32 0.000826235
184 *315:29 0.00112443
185 *315:21 0.000553574
186 *315:14 0.000783983
187 *315:12 0.000345015
188 *315:10 0.000385128
189 *315:8 0.000782426
190 *1002:B *1321:A 0
191 *1002:B *1323:A 0
192 *1002:B *1325:A 0
193 *1002:B *1326:A2 0
194 *1002:B *1326:B1 0
195 *1002:B *316:880 0
196 *1058:B *1059:A2 0
197 *1058:B *1059:B1 0
198 *1058:B *316:265 0
199 *1073:B *1092:A2 0
200 *1073:B *651:21 0
201 *1079:B *1077:A1 0
202 *1082:B *1081:A 0
203 *1082:B *1081:B 0
204 *1082:B *1082:A 0
205 *1085:B *1085:A 0
206 *1085:B *1086:A1 0
207 *1088:B *625:10 0
208 *1091:B *1090:B 0
209 *1091:B *1095:B1 0
210 *1091:B *626:32 0
211 *1091:B *627:27 0
212 *1091:B *628:9 0
213 *1100:B *360:110 0
214 *1100:B *603:189 0
215 *1100:B *613:24 0
216 *1100:B *615:6 0
217 *1100:B *696:30 0
218 *1112:B *360:79 0
219 *1112:B *626:32 0
220 *1112:B *692:23 0
221 *1132:B *1132:A 0
222 *1132:B *1134:B 0
223 *1132:B *603:663 0
224 *1132:B *643:10 0
225 *1142:B *1059:B1 0
226 *1142:B *316:265 0
227 *1144:B *1149:A 0
228 *1150:B *603:401 0
229 *1150:B *692:23 0
230 *1150:B *693:10 0
231 *1150:B *694:25 0
232 *1150:B *695:12 0
233 *1150:B *774:22 0
234 *1159:B *1430:CLK 0
235 *1159:B *1430:RESET_B 0
236 *1159:B *603:207 0
237 *1159:B *696:30 0
238 *1159:B *766:32 0
239 *1159:B *766:40 0
240 *1163:B *1164:B1 0
241 *1163:B *1431:RESET_B 0
242 *1163:B *316:110 0
243 *1163:B *698:8 0
244 *1163:B *698:36 0
245 *1163:B *766:20 0
246 *1178:B *1178:A 0
247 *1178:B *1272:A1 0
248 *1178:B *1272:B1 0
249 *1178:B *579:12 0
250 *1180:B *1180:A 0
251 *1180:B *1182:A 0
252 *1180:B *1182:B 0
253 *1180:B *1268:A 0
254 *1180:B *1269:A 0
255 *1180:B *1269:B 0
256 *1180:B *579:12 0
257 *1195:B *1195:A 0
258 *1198:B *1200:A 0
259 *1198:B *613:17 0
260 *1202:B *1199:A 0
261 *1204:B *1206:A 0
262 *1204:B *614:28 0
263 *1204:B *615:26 0
264 *1207:B *951:C2 0
265 *1207:B *1039:A 0
266 *1207:B *1046:C 0
267 *1207:B *1208:B 0
268 *1207:B *1209:A 0
269 *1207:B *1209:B 0
270 *1207:B *360:21 0
271 *1207:B *620:41 0
272 *1214:B *1117:A 0
273 *1214:B *1119:B1 0
274 *1214:B *603:504 0
275 *1214:B *618:37 0
276 *1217:B *1130:A 0
277 *1217:B *1131:A 0
278 *1217:B *1132:A 0
279 *1217:B *1218:A1 0
280 *1217:B *1218:A2 0
281 *1217:B *1218:B1 0
282 *1217:B *603:655 0
283 *1217:B *603:657 0
284 *1217:B *603:659 0
285 *1217:B *641:8 0
286 *1219:B *1420:CLK 0
287 *1228:B *1126:A 0
288 *1228:B *1129:A 0
289 *1228:B *316:1062 0
290 *1228:B *316:1064 0
291 *1228:B *640:10 0
292 *1232:B *609:21 0
293 *1232:B *609:26 0
294 *1232:B *674:14 0
295 *1232:B *779:8 0
296 *1235:B *1235:A 0
297 *1241:B *1242:A1 0
298 *1243:B *1242:A1 0
299 *1243:B *1242:A2 0
300 *1243:B *1243:A 0
301 *1243:B *1244:B 0
302 *1243:B *1245:A 0
303 *1243:B *674:7 0
304 *1247:B *1246:A 0
305 *1247:B *1248:A2 0
306 *1247:B *316:932 0
307 *1253:B *1015:B 0
308 *1253:B *1030:D 0
309 *1253:B *1254:A2 0
310 *1259:B *1258:B 0
311 *1259:B *1260:A2 0
312 *1259:B *1293:A 0
313 *1259:B *1293:B 0
314 *1259:B *1474:RESET_B 0
315 *1259:B *593:11 0
316 *1261:B *1265:A 0
317 *1261:B *1437:RESET_B 0
318 *1261:B *1464:RESET_B 0
319 *1261:B *603:889 0
320 *1261:B *653:38 0
321 *1261:B *683:6 0
322 *1261:B *683:8 0
323 *1261:B *768:18 0
324 *1265:B *1266:A1 0
325 *1265:B *1266:A2 0
326 *1271:B *1271:A 0
327 *1271:B *1272:A2 0
328 *1271:B *592:200 0
329 *1271:B *603:907 0
330 *1271:B *763:40 0
331 *1273:B *1270:A 0
332 *1273:B *316:617 0
333 *1273:B *316:627 0
334 *1273:B *592:200 0
335 *1273:B *603:909 0
336 *1273:B *655:9 0
337 *1279:B *316:57 0
338 *1279:B *765:14 0
339 *1283:B *1283:A 0
340 *1283:B *1284:A2 0
341 *1285:B *1287:A 0
342 *1285:B *316:34 0
343 *1285:B *316:50 0
344 *1285:B *659:8 0
345 *1289:B *1290:A2 0
346 *1289:B *1290:B1 0
347 *1295:B *1257:B 0
348 *1295:B *1295:A 0
349 *1295:B *603:116 0
350 *1295:B *603:124 0
351 *1295:B *681:15 0
352 *1295:B *770:5 0
353 *1295:B *770:10 0
354 *1297:B *664:23 0
355 *1303:B *1477:CLK 0
356 *1309:B *920:B2 0
357 *1309:B *666:30 0
358 *1313:B *669:27 0
359 *1315:B *1317:A 0
360 *1315:B *620:27 0
361 *1315:B *671:34 0
362 *1315:B *777:22 0
363 *1315:B *777:37 0
364 *1319:B *1319:A 0
365 *1319:B *620:27 0
366 *1319:B *777:37 0
367 *1321:B *1325:A 0
368 *1321:B *1326:A2 0
369 *1327:B *676:17 0
370 *1331:B *1330:A 0
371 *1331:B *1332:A2 0
372 *1331:B *1332:B1 0
373 *1331:B *1369:A2 0
374 *1331:B *316:872 0
375 *315:8 *1000:B 0
376 *315:10 *360:602 0
377 *315:10 *603:14 0
378 *315:12 *360:602 0
379 *315:12 *603:22 0
380 *315:14 *360:602 0
381 *315:21 *603:22 0
382 *315:21 *603:109 0
383 *315:29 *1009:B 0
384 *315:32 *1009:D 0
385 *315:32 *669:27 0
386 *315:53 *588:14 0
387 *315:57 *1325:A 0
388 *315:57 *1326:A2 0
389 *315:82 *1302:A2 0
390 *315:82 *1478:CLK 0
391 *315:87 *1299:B 0
392 *315:87 *1461:CLK 0
393 *315:87 *1478:CLK 0
394 *315:87 *1486:CLK 0
395 *315:87 *316:24 0
396 *315:87 *664:23 0
397 *315:87 *770:49 0
398 *315:89 *1461:CLK 0
399 *315:89 *316:26 0
400 *315:89 *316:30 0
401 *315:89 *664:23 0
402 *315:93 *1015:C 0
403 *315:93 *1254:A2 0
404 *315:93 *1287:A 0
405 *315:93 *1461:CLK 0
406 *315:93 *316:30 0
407 *315:93 *316:34 0
408 *315:115 *934:C2 0
409 *315:115 *1255:A 0
410 *315:115 *662:34 0
411 *315:115 *765:54 0
412 *315:124 *1255:A 0
413 *315:124 *1257:B 0
414 *315:124 *1470:CLK 0
415 *315:124 *360:446 0
416 *315:124 *603:124 0
417 *315:124 *603:130 0
418 *315:124 *603:141 0
419 *315:124 *770:19 0
420 *315:126 *360:446 0
421 *315:126 *603:141 0
422 *315:128 *360:446 0
423 *315:128 *603:141 0
424 *315:132 *360:452 0
425 *315:132 *603:143 0
426 *315:132 *604:30 0
427 *315:133 *1189:A 0
428 *315:133 *1278:A2 0
429 *315:133 *611:9 0
430 *315:145 *1188:A2 0
431 *315:145 *1440:CLK 0
432 *315:145 *316:559 0
433 *315:145 *604:22 0
434 *315:156 *1288:B 0
435 *315:156 *316:559 0
436 *315:156 *316:561 0
437 *315:156 *603:858 0
438 *315:156 *603:938 0
439 *315:169 *1288:A 0
440 *315:169 *1291:A 0
441 *315:169 *603:938 0
442 *315:169 *603:947 0
443 *315:194 *1188:B1 0
444 *315:194 *1192:A 0
445 *315:194 *1469:CLK 0
446 *315:194 *316:65 0
447 *315:194 *316:78 0
448 *315:199 *1164:A1 0
449 *315:199 *1195:A 0
450 *315:199 *1197:A 0
451 *315:199 *1443:CLK 0
452 *315:199 *1469:CLK 0
453 *315:199 *316:78 0
454 *315:199 *316:84 0
455 *315:205 *316:84 0
456 *315:205 *767:14 0
457 *315:213 *1432:RESET_B 0
458 *315:213 *578:13 0
459 *315:213 *603:842 0
460 *315:224 *1171:A 0
461 *315:224 *360:509 0
462 *315:224 *603:842 0
463 *315:224 *687:8 0
464 *315:227 *1174:A 0
465 *315:227 *1176:A 0
466 *315:227 *764:8 0
467 *315:229 *1176:A 0
468 *315:274 *1171:A 0
469 *315:274 *360:509 0
470 *315:285 *1171:A 0
471 *315:285 *1184:A 0
472 *315:285 *1185:B1 0
473 *315:285 *360:509 0
474 *315:285 *578:13 0
475 *315:288 *1185:A2 0
476 *315:288 *1266:A1 0
477 *315:292 *1266:A1 0
478 *315:292 *1266:A2 0
479 *315:299 *1266:A1 0
480 *315:299 *1266:A2 0
481 *315:299 *1267:A 0
482 *315:364 *1278:A2 0
483 *315:364 *611:9 0
484 *315:364 *765:14 0
485 *315:371 *1044:C 0
486 *315:371 *1278:A2 0
487 *315:371 *1445:CLK 0
488 *315:371 *656:33 0
489 *315:371 *765:14 0
490 *315:371 *765:18 0
491 *315:373 *1200:A 0
492 *315:373 *1445:CLK 0
493 *315:373 *316:110 0
494 *315:373 *603:182 0
495 *315:373 *765:18 0
496 *315:373 *766:13 0
497 *315:399 *1043:A 0
498 *315:399 *1445:CLK 0
499 *315:399 *698:36 0
500 *315:399 *699:25 0
501 *315:399 *766:13 0
502 *315:408 *1199:A 0
503 *315:408 *614:9 0
504 *315:408 *614:28 0
505 *315:411 *613:24 0
506 *315:411 *615:17 0
507 *315:423 *633:22 0
508 *315:434 *1110:A1 0
509 *315:434 *1110:A2 0
510 *315:434 *360:102 0
511 *315:434 *629:8 0
512 *315:434 *632:29 0
513 *315:434 *633:25 0
514 *315:438 *629:8 0
515 *315:438 *632:29 0
516 *315:441 *1106:A 0
517 *315:441 *1107:A2 0
518 *315:441 *632:29 0
519 *315:449 *1103:A 0
520 *315:449 *360:130 0
521 *315:449 *632:17 0
522 *315:469 *1077:A1 0
523 *315:469 *632:29 0
524 *315:481 *1076:A 0
525 *315:481 *1077:A1 0
526 *315:481 *1077:A2 0
527 *315:487 *1082:A 0
528 *315:487 *1403:RESET_B 0
529 *315:487 *623:9 0
530 *315:487 *623:29 0
531 *315:487 *623:40 0
532 *315:487 *695:23 0
533 *315:495 *1156:A 0
534 *315:495 *1403:RESET_B 0
535 *315:495 *623:9 0
536 *315:502 *1084:A 0
537 *315:502 *1158:A 0
538 *315:502 *1403:RESET_B 0
539 *315:502 *603:306 0
540 *315:502 *625:21 0
541 *315:502 *695:12 0
542 *315:502 *695:23 0
543 *315:527 *1403:RESET_B 0
544 *315:527 *603:290 0
545 *315:527 *625:21 0
546 *315:539 *650:21 0
547 *315:539 *692:23 0
548 *315:539 *695:12 0
549 *315:553 *1154:A 0
550 *315:553 *1155:A2 0
551 *315:553 *1406:RESET_B 0
552 *315:553 *651:11 0
553 *315:553 *694:25 0
554 *315:573 *1068:A2 0
555 *315:573 *650:15 0
556 *315:573 *651:21 0
557 *315:584 *1067:A 0
558 *315:584 *1068:A2 0
559 *315:584 *649:23 0
560 *315:584 *651:21 0
561 *315:584 *773:14 0
562 *315:591 *1074:A2 0
563 *315:591 *635:10 0
564 *315:591 *649:23 0
565 *315:591 *651:21 0
566 *315:591 *651:29 0
567 *315:607 *1092:B1 0
568 *315:607 *1095:A2 0
569 *315:607 *626:32 0
570 *315:607 *627:20 0
571 *315:607 *627:27 0
572 *315:633 *1074:A2 0
573 *315:633 *1115:A 0
574 *315:633 *1414:RESET_B 0
575 *315:633 *635:10 0
576 *315:637 *1114:B 0
577 *315:637 *1115:A 0
578 *315:637 *1116:B1 0
579 *315:637 *603:446 0
580 *315:643 *636:8 0
581 *315:643 *647:21 0
582 *315:643 *693:22 0
583 *315:643 *694:25 0
584 *315:643 *774:10 0
585 *315:653 *647:21 0
586 *315:653 *692:23 0
587 *315:653 *693:22 0
588 *315:656 *1056:A2 0
589 *315:656 *1424:CLK 0
590 *315:656 *603:413 0
591 *315:656 *774:90 0
592 *315:672 *1053:A2 0
593 *315:672 *603:419 0
594 *315:672 *603:477 0
595 *315:672 *642:9 0
596 *315:672 *642:17 0
597 *315:672 *774:88 0
598 *315:672 *774:90 0
599 *315:680 *1049:A 0
600 *315:680 *1053:A2 0
601 *315:680 *1211:A 0
602 *315:680 *1212:A2 0
603 *315:680 *1212:B1 0
604 *315:680 *1416:CLK 0
605 *315:680 *316:965 0
606 *315:680 *316:970 0
607 *315:680 *642:17 0
608 *315:680 *642:19 0
609 *315:688 *1119:A2 0
610 *315:688 *1119:B1 0
611 *315:715 *1120:A 0
612 *315:715 *1416:CLK 0
613 *315:715 *316:963 0
614 *315:715 *637:17 0
615 *315:726 *1222:A 0
616 *315:726 *606:17 0
617 *315:726 *606:19 0
618 *315:735 *1122:A 0
619 *315:735 *1123:A 0
620 *315:735 *1124:A 0
621 *315:735 *316:963 0
622 *315:735 *603:544 0
623 *315:735 *606:17 0
624 *315:735 *639:18 0
625 *315:742 *1125:A2 0
626 *315:742 *1125:B1 0
627 *315:742 *603:544 0
628 *315:742 *603:553 0
629 *315:742 *778:20 0
630 *315:747 *1235:A 0
631 *315:747 *360:394 0
632 *315:747 *360:668 0
633 *315:747 *603:553 0
634 *315:747 *603:616 0
635 *315:747 *778:20 0
636 *315:751 *1235:A 0
637 *315:759 *674:14 0
638 *315:759 *779:8 0
639 *315:762 *1249:A 0
640 *315:762 *674:14 0
641 *315:769 *1248:A2 0
642 *315:769 *1248:B1 0
643 *315:769 *1250:A 0
644 *315:769 *1250:B 0
645 *315:769 *1251:A 0
646 *315:769 *316:920 0
647 *315:774 *316:920 0
648 *315:774 *316:932 0
649 *315:814 *1247:A 0
650 *315:814 *652:16 0
651 *315:814 *779:8 0
652 *315:826 *1237:A 0
653 *315:826 *1239:A 0
654 *315:826 *652:5 0
655 *315:826 *652:9 0
656 *315:826 *652:16 0
657 *315:861 *1127:A 0
658 *315:861 *1418:RESET_B 0
659 *315:861 *1419:CLK 0
660 *315:867 *1226:A 0
661 *315:867 *1419:CLK 0
662 *315:867 *360:364 0
663 *315:867 *778:49 0
664 *315:873 *360:358 0
665 *315:876 *1129:A 0
666 *315:876 *603:655 0
667 *315:878 *1129:A 0
668 *315:878 *1131:A 0
669 *315:878 *316:1052 0
670 *315:878 *603:655 0
671 *315:941 *647:21 0
672 *315:941 *691:36 0
673 *315:941 *692:23 0
674 *315:942 *1054:A 0
675 *315:942 *1143:A1 0
676 *315:942 *603:671 0
677 *315:942 *603:673 0
678 *315:956 *1054:A 0
679 *315:956 *647:21 0
680 *315:956 *684:25 0
681 *315:968 *1058:A 0
682 *315:968 *1138:A 0
683 *315:968 *316:268 0
684 *315:968 *316:312 0
685 *315:968 *603:665 0
686 *315:968 *603:667 0
687 *315:968 *603:671 0
688 *315:981 *1136:B 0
689 *315:981 *1137:A 0
690 *315:981 *1137:B 0
691 *315:981 *1138:A 0
692 *315:981 *603:665 0
693 *315:981 *643:10 0
694 *315:981 *643:17 0
695 *315:1005 *603:679 0
696 *1402:D *315:481 0
697 *1405:D *315:502 0
698 *1414:D *315:591 0
699 *1418:D *315:861 0
700 *1420:D *1219:B 0
701 *1434:D *315:285 0
702 *1438:D *315:288 0
703 *1440:D *315:194 0
704 *1441:D *315:199 0
705 *1446:D *1207:B 0
706 *1449:D *1217:B 0
707 *1451:D *315:735 0
708 *1452:D *315:873 0
709 *1457:D *1243:B 0
710 *1469:D *315:194 0
711 *1473:D *1289:B 0
712 *1473:D *315:169 0
713 *1476:D *315:87 0
714 *1478:D *315:12 0
715 *1478:D *315:14 0
716 *1482:D *1315:B 0
717 *1483:D *315:774 0
718 *1487:D *1331:B 0
719 *278:11 *1002:B 0
720 *278:11 *315:29 0
721 *278:11 *315:53 0
*RES
1 *1000:Y *315:8 19.7821 
2 *315:8 *315:10 5.58929 
3 *315:10 *315:12 2.25 
4 *315:12 *315:14 4.67857 
5 *315:14 *315:21 8.94545 
6 *315:21 *1307:B 14.0768 
7 *315:21 *315:29 0.580357 
8 *315:29 *315:32 16.9464 
9 *315:32 *1309:B 21.7643 
10 *315:32 *1313:B 10.9786 
11 *315:29 *315:53 15.9107 
12 *315:53 *315:57 1.78571 
13 *315:57 *1321:B 9.72857 
14 *315:57 *1002:B 25.4786 
15 *315:53 *1325:B 9.3 
16 *315:14 *315:82 5.85714 
17 *315:82 *315:87 11.9643 
18 *315:87 *315:89 3.00893 
19 *315:89 *315:93 9.02679 
20 *315:93 *1285:B 24.2643 
21 *315:93 *1253:B 14.3714 
22 *315:89 *315:115 8.52453 
23 *315:115 *315:124 10.8036 
24 *315:124 *315:126 1.33929 
25 *315:126 *315:128 5.58929 
26 *315:128 *315:132 6.44643 
27 *315:132 *315:133 4.64286 
28 *315:133 *315:145 18.9286 
29 *315:145 *1187:B 9.72857 
30 *315:145 *315:156 14.4643 
31 *315:156 *1289:B 16.8179 
32 *315:156 *315:169 5.21429 
33 *315:169 *1291:B 14.3357 
34 *315:169 *1259:B 20.2464 
35 *315:133 *315:194 10.3929 
36 *315:194 *315:199 13.6071 
37 *315:199 *315:205 20.8929 
38 *315:205 *315:213 18.7143 
39 *315:213 *1169:B 9.3 
40 *315:213 *315:224 9.83929 
41 *315:224 *315:227 8.73214 
42 *315:227 *315:229 9.98214 
43 *315:229 *1178:B 25.2107 
44 *315:229 *315:243 4.5 
45 *315:243 *1273:B 18.3714 
46 *315:243 *1271:B 19.675 
47 *315:227 *1174:B 9.72857 
48 *315:224 *315:274 2.55357 
49 *315:274 *1171:B 13.8 
50 *315:274 *315:285 12.75 
51 *315:285 *315:288 13.6607 
52 *315:288 *315:292 13.1607 
53 *315:292 *315:299 12.1964 
54 *315:299 *1267:B 9.3 
55 *315:299 *1180:B 23.05 
56 *315:292 *1265:B 10.0321 
57 *315:288 *1261:B 18.7821 
58 *315:285 *1184:B 9.3 
59 *315:205 *1166:B 9.72857 
60 *315:199 *1195:B 10.2375 
61 *315:194 *1192:B 14.3357 
62 *315:132 *315:364 14.2321 
63 *315:364 *315:371 11.1786 
64 *315:371 *315:373 7.71429 
65 *315:373 *1163:B 22.5857 
66 *315:373 *1198:B 14.3357 
67 *315:371 *315:399 19.7679 
68 *315:399 *1202:B 9.83571 
69 *315:399 *315:408 7.125 
70 *315:408 *315:411 7.66071 
71 *315:411 *1100:B 19.3179 
72 *315:411 *315:423 11.1964 
73 *315:423 *1109:B 9.3 
74 *315:423 *315:434 13 
75 *315:434 *315:438 9.17857 
76 *315:438 *315:441 5.48214 
77 *315:441 *315:449 15.875 
78 *315:449 *1159:B 27.5143 
79 *315:449 *1103:B 9.3 
80 *315:441 *1106:B 9.3 
81 *315:438 *315:469 5.46429 
82 *315:469 *1079:B 9.72857 
83 *315:469 *315:481 4.16071 
84 *315:481 *315:487 15.3393 
85 *315:487 *1156:B 9.3 
86 *315:487 *315:495 2.60714 
87 *315:495 *315:502 13.3929 
88 *315:502 *1082:B 31.2464 
89 *315:502 *1085:B 14.3357 
90 *315:495 *315:527 11.5446 
91 *315:527 *1088:B 14.0768 
92 *315:527 *315:539 9.029 
93 *315:539 *315:542 4.77679 
94 *315:542 *1070:B 9.3 
95 *315:542 *315:553 11.375 
96 *315:553 *1150:B 29.704 
97 *315:553 *1154:B 9.3 
98 *315:539 *315:573 2.09821 
99 *315:573 *1067:B 14.3357 
100 *315:573 *315:584 14.6429 
101 *315:584 *315:591 14.5 
102 *315:591 *1112:B 22.9071 
103 *315:591 *315:603 0.428571 
104 *315:603 *315:607 6.60714 
105 *315:607 *1091:B 21.0857 
106 *315:607 *1094:B 9.3 
107 *315:603 *1073:B 10.0321 
108 *315:584 *315:633 7.25 
109 *315:633 *315:637 4.66071 
110 *315:637 *315:643 10.9768 
111 *315:643 *1064:B 17.4868 
112 *315:643 *315:653 1.27213 
113 *315:653 *315:656 10.3654 
114 *315:656 *1055:B 13.8 
115 *315:656 *315:672 17.375 
116 *315:672 *315:680 22.7857 
117 *315:680 *1118:B 9.3 
118 *315:680 *315:686 0.428571 
119 *315:686 *315:688 1.76786 
120 *315:688 *1207:B 30.4607 
121 *315:688 *1211:B 9.72857 
122 *315:686 *315:710 0.535714 
123 *315:710 *315:715 16.4107 
124 *315:715 *1222:B 9.3 
125 *315:715 *315:726 2.33929 
126 *315:726 *1120:B 9.3 
127 *315:726 *315:735 14.875 
128 *315:735 *1124:B 13.8 
129 *315:735 *315:742 2.55357 
130 *315:742 *315:747 10.6429 
131 *315:747 *315:751 10.375 
132 *315:751 *1232:B 15.7464 
133 *315:751 *315:759 2.55357 
134 *315:759 *315:762 9.96429 
135 *315:762 *315:769 15.6429 
136 *315:769 *315:774 16.1429 
137 *315:774 *1315:B 20.9071 
138 *315:774 *1319:B 20.4429 
139 *315:769 *1247:B 10.675 
140 *315:762 *1249:B 10.0321 
141 *315:759 *315:814 11.1786 
142 *315:814 *1237:B 9.3 
143 *315:814 *315:826 12.0893 
144 *315:826 *1241:B 9.72857 
145 *315:826 *1243:B 23.7643 
146 *315:747 *1235:B 9.72857 
147 *315:742 *315:861 15.1607 
148 *315:861 *315:867 16.5714 
149 *315:867 *315:873 14.875 
150 *315:873 *315:876 7.96429 
151 *315:876 *315:878 1.64286 
152 *315:878 *1217:B 21.2821 
153 *315:878 *1219:B 20.4071 
154 *315:876 *1129:B 13.8 
155 *315:873 *1228:B 27.925 
156 *315:867 *1226:B 9.3 
157 *315:861 *1127:B 9.3 
158 *315:710 *1214:B 25.4964 
159 *315:672 *1052:B 9.3 
160 *315:653 *315:941 4.61007 
161 *315:941 *315:942 4.83036 
162 *315:942 *1058:B 14.7464 
163 *315:942 *315:956 7.57619 
164 *315:956 *1142:B 14.3357 
165 *315:956 *315:968 7.10714 
166 *315:968 *1138:B 13.8 
167 *315:968 *315:981 17.5179 
168 *315:981 *1135:B 13.9518 
169 *315:981 *1132:B 17.7286 
170 *315:941 *315:1005 10.1696 
171 *315:1005 *1144:B 13.5679 
172 *315:1005 *1147:B 9.3 
173 *315:637 *1061:B 10.2643 
174 *315:633 *1115:B 9.3 
175 *315:481 *1076:B 9.3 
176 *315:434 *1097:B 14.3357 
177 *315:408 *1204:B 22.55 
178 *315:364 *1277:B 9.3 
179 *315:128 *1190:B 13.8 
180 *315:126 *1279:B 27.4786 
181 *315:124 *1283:B 14.7643 
182 *315:115 *1255:B 13.8 
183 *315:115 *1295:B 23.1393 
184 *315:87 *1297:B 14.7464 
185 *315:82 *1301:B 9.72857 
186 *315:12 *1303:B 14.7464 
187 *315:10 *1327:B 14.7464 
188 *315:8 *1331:B 19.175 
*END

*D_NET *316 0.08206
*CONN
*I *1330:B I *D sky130_fd_sc_hd__nand2_1
*I *1324:B I *D sky130_fd_sc_hd__nand2_1
*I *1003:B I *D sky130_fd_sc_hd__nand2_1
*I *1322:B I *D sky130_fd_sc_hd__nand2_1
*I *1318:B I *D sky130_fd_sc_hd__nand2_1
*I *1316:B I *D sky130_fd_sc_hd__nand2_1
*I *1238:B I *D sky130_fd_sc_hd__nand2_1
*I *1240:B I *D sky130_fd_sc_hd__nand2_1
*I *1234:B I *D sky130_fd_sc_hd__nand2_1
*I *1231:B I *D sky130_fd_sc_hd__nand2_1
*I *1123:B I *D sky130_fd_sc_hd__nand2_1
*I *1223:B I *D sky130_fd_sc_hd__nand2_1
*I *1121:B I *D sky130_fd_sc_hd__nand2_1
*I *1117:B I *D sky130_fd_sc_hd__nand2_1
*I *1225:B I *D sky130_fd_sc_hd__nand2_1
*I *1244:B I *D sky130_fd_sc_hd__nand2_1
*I *1126:B I *D sky130_fd_sc_hd__nand2_1
*I *1229:B I *D sky130_fd_sc_hd__nand2_1
*I *1130:B I *D sky130_fd_sc_hd__nand2_1
*I *1216:B I *D sky130_fd_sc_hd__nand2_1
*I *1220:B I *D sky130_fd_sc_hd__nand2_1
*I *1213:B I *D sky130_fd_sc_hd__nand2_1
*I *1210:B I *D sky130_fd_sc_hd__nand2_1
*I *1208:B I *D sky130_fd_sc_hd__nand2_1
*I *1048:A2 I *D sky130_fd_sc_hd__a21oi_1
*I *1047:B I *D sky130_fd_sc_hd__nor3_1
*I *1246:B I *D sky130_fd_sc_hd__nand2_1
*I *1250:B I *D sky130_fd_sc_hd__nand2_1
*I *1312:B I *D sky130_fd_sc_hd__nand2_1
*I *1304:B I *D sky130_fd_sc_hd__nand2_1
*I *1300:B I *D sky130_fd_sc_hd__nand2_1
*I *1328:B I *D sky130_fd_sc_hd__nand2_1
*I *1294:B I *D sky130_fd_sc_hd__nand2_1
*I *1306:B I *D sky130_fd_sc_hd__nand2_1
*I *1310:B I *D sky130_fd_sc_hd__nand2_1
*I *1298:B I *D sky130_fd_sc_hd__nand2_1
*I *1252:B I *D sky130_fd_sc_hd__nand2_1
*I *1280:B I *D sky130_fd_sc_hd__nand2_1
*I *1205:B I *D sky130_fd_sc_hd__nand2_1
*I *1276:B I *D sky130_fd_sc_hd__nand2_1
*I *1189:B I *D sky130_fd_sc_hd__nand2_1
*I *1186:B I *D sky130_fd_sc_hd__nand2_1
*I *1286:B I *D sky130_fd_sc_hd__nand2_1
*I *1256:B I *D sky130_fd_sc_hd__nand2_1
*I *1258:B I *D sky130_fd_sc_hd__nand2_1
*I *1292:B I *D sky130_fd_sc_hd__nand2_1
*I *1288:B I *D sky130_fd_sc_hd__nand2_1
*I *1183:B I *D sky130_fd_sc_hd__nand2_1
*I *1172:B I *D sky130_fd_sc_hd__nand2_1
*I *1175:B I *D sky130_fd_sc_hd__nand2_1
*I *1262:B I *D sky130_fd_sc_hd__nand2_1
*I *1264:B I *D sky130_fd_sc_hd__nand2_1
*I *1181:B I *D sky130_fd_sc_hd__nand2_1
*I *1268:B I *D sky130_fd_sc_hd__nand2_1
*I *1270:B I *D sky130_fd_sc_hd__nand2_1
*I *1177:B I *D sky130_fd_sc_hd__nand2_1
*I *1274:B I *D sky130_fd_sc_hd__nand2_1
*I *1168:B I *D sky130_fd_sc_hd__nand2_1
*I *1165:B I *D sky130_fd_sc_hd__nand2_1
*I *1193:B I *D sky130_fd_sc_hd__nand2_1
*I *1199:B I *D sky130_fd_sc_hd__nand2_1
*I *1201:B I *D sky130_fd_sc_hd__nand2_1
*I *1096:B I *D sky130_fd_sc_hd__nand2_1
*I *1105:B I *D sky130_fd_sc_hd__nand2_1
*I *1093:B I *D sky130_fd_sc_hd__nand2_1
*I *1090:B I *D sky130_fd_sc_hd__nand2_1
*I *1078:B I *D sky130_fd_sc_hd__nand2_1
*I *1099:B I *D sky130_fd_sc_hd__nand2_1
*I *1102:B I *D sky130_fd_sc_hd__nand2_1
*I *1157:B I *D sky130_fd_sc_hd__nand2_1
*I *1069:B I *D sky130_fd_sc_hd__nand2_1
*I *1066:B I *D sky130_fd_sc_hd__nand2_1
*I *1087:B I *D sky130_fd_sc_hd__nand2_1
*I *1084:B I *D sky130_fd_sc_hd__nand2_1
*I *1081:B I *D sky130_fd_sc_hd__nand2_1
*I *1160:B I *D sky130_fd_sc_hd__nand2_1
*I *1075:B I *D sky130_fd_sc_hd__nand2_1
*I *1050:A2 I *D sky130_fd_sc_hd__o31ai_1
*I *1049:B I *D sky130_fd_sc_hd__nand2_1
*I *1133:B I *D sky130_fd_sc_hd__nand2_1
*I *1136:B I *D sky130_fd_sc_hd__nand2_1
*I *1139:B I *D sky130_fd_sc_hd__nand2_1
*I *1057:B I *D sky130_fd_sc_hd__nand2_1
*I *1141:B I *D sky130_fd_sc_hd__nand2_1
*I *1145:B I *D sky130_fd_sc_hd__nand2_1
*I *1148:B I *D sky130_fd_sc_hd__nand2_1
*I *1054:B I *D sky130_fd_sc_hd__nand2_1
*I *1151:B I *D sky130_fd_sc_hd__nand2_1
*I *1153:B I *D sky130_fd_sc_hd__nand2_1
*I *1063:B I *D sky130_fd_sc_hd__nand2_1
*I *1051:B I *D sky130_fd_sc_hd__nand2_1
*I *1114:B I *D sky130_fd_sc_hd__nand2_1
*I *1060:B I *D sky130_fd_sc_hd__nand2_1
*I *1072:B I *D sky130_fd_sc_hd__nand2_1
*I *1111:B I *D sky130_fd_sc_hd__nand2_1
*I *1108:B I *D sky130_fd_sc_hd__nand2_1
*I *1162:B I *D sky130_fd_sc_hd__nand2_1
*I *1196:B I *D sky130_fd_sc_hd__nand2_1
*I *1282:B I *D sky130_fd_sc_hd__nand2_1
*I *1001:X O *D sky130_fd_sc_hd__lpflow_inputiso1p_1
*CAP
1 *1330:B 0
2 *1324:B 0
3 *1003:B 9.41867e-06
4 *1322:B 4.32091e-05
5 *1318:B 0.000550919
6 *1316:B 0.000143745
7 *1238:B 0
8 *1240:B 0.000722148
9 *1234:B 6.20329e-05
10 *1231:B 0
11 *1123:B 0
12 *1223:B 7.95732e-05
13 *1121:B 0
14 *1117:B 0
15 *1225:B 7.27943e-05
16 *1244:B 0.000431973
17 *1126:B 0.000150376
18 *1229:B 0
19 *1130:B 0
20 *1216:B 0.000250036
21 *1220:B 0
22 *1213:B 0
23 *1210:B 6.50276e-05
24 *1208:B 0.000302036
25 *1048:A2 0
26 *1047:B 0.000124066
27 *1246:B 0
28 *1250:B 1.01265e-05
29 *1312:B 0.000297187
30 *1304:B 7.23004e-05
31 *1300:B 2.0535e-05
32 *1328:B 0.000325072
33 *1294:B 0
34 *1306:B 0
35 *1310:B 0.000219284
36 *1298:B 3.22476e-05
37 *1252:B 6.20329e-05
38 *1280:B 1.90377e-05
39 *1205:B 0.000742111
40 *1276:B 3.50807e-05
41 *1189:B 3.17545e-05
42 *1186:B 0
43 *1286:B 0
44 *1256:B 0.000109721
45 *1258:B 0.000390165
46 *1292:B 2.0535e-05
47 *1288:B 8.29787e-05
48 *1183:B 0
49 *1172:B 0
50 *1175:B 3.50807e-05
51 *1262:B 0
52 *1264:B 9.88248e-05
53 *1181:B 1.02675e-05
54 *1268:B 8.25679e-05
55 *1270:B 0
56 *1177:B 4.53482e-05
57 *1274:B 0.000362534
58 *1168:B 0.000279044
59 *1165:B 0
60 *1193:B 4.23535e-05
61 *1199:B 0
62 *1201:B 4.53482e-05
63 *1096:B 0.00021206
64 *1105:B 2.0535e-05
65 *1093:B 2.94948e-05
66 *1090:B 0.000316582
67 *1078:B 2.0535e-05
68 *1099:B 0
69 *1102:B 0
70 *1157:B 0.000218185
71 *1069:B 4.32091e-05
72 *1066:B 0.000112375
73 *1087:B 0
74 *1084:B 0
75 *1081:B 8.57316e-05
76 *1160:B 0.000119788
77 *1075:B 0.000112474
78 *1050:A2 0
79 *1049:B 2.56688e-05
80 *1133:B 7.23606e-05
81 *1136:B 0.000142462
82 *1139:B 7.65785e-05
83 *1057:B 0
84 *1141:B 0
85 *1145:B 0
86 *1148:B 0.000534766
87 *1054:B 2.0535e-05
88 *1151:B 0.000244469
89 *1153:B 2.56688e-05
90 *1063:B 0
91 *1051:B 6.0974e-05
92 *1114:B 4.53482e-05
93 *1060:B 0.000223883
94 *1072:B 0
95 *1111:B 3.22476e-05
96 *1108:B 2.0535e-05
97 *1162:B 0.000109965
98 *1196:B 2.0535e-05
99 *1282:B 7.19083e-05
100 *1001:X 0.000454907
101 *316:1069 0.00029348
102 *316:1064 0.000791765
103 *316:1062 0.000707724
104 *316:1052 0.000481163
105 *316:1038 0.000799877
106 *316:1026 0.00103458
107 *316:1016 0.000897166
108 *316:999 0.000537231
109 *316:995 0.000369102
110 *316:970 0.000675331
111 *316:965 0.00104325
112 *316:963 0.000786709
113 *316:961 0.000610887
114 *316:956 0.000556089
115 *316:950 0.000653071
116 *316:945 0.000644844
117 *316:940 0.000469656
118 *316:935 0.000951507
119 *316:932 0.000699022
120 *316:920 0.000962566
121 *316:908 0.00104945
122 *316:889 0.00112645
123 *316:887 0.000336445
124 *316:886 0.00066064
125 *316:884 0.000371421
126 *316:880 0.000581605
127 *316:872 0.00091778
128 *316:851 0.000194227
129 *316:823 0.00112325
130 *316:811 0.00115868
131 *316:736 0.00075124
132 *316:733 0.000897008
133 *316:730 0.000752704
134 *316:688 0.000567143
135 *316:664 0.000386743
136 *316:659 0.00103511
137 *316:634 0.000676076
138 *316:627 0.000412153
139 *316:617 0.000695351
140 *316:615 0.000615623
141 *316:592 0.000852091
142 *316:579 0.00119737
143 *316:574 0.000922073
144 *316:567 0.000884773
145 *316:561 0.000390776
146 *316:559 0.000922112
147 *316:508 0.000268042
148 *316:487 0.000921987
149 *316:476 0.0012587
150 *316:469 0.000662255
151 *316:437 0.000531004
152 *316:425 0.000875274
153 *316:414 0.00101109
154 *316:400 0.000706689
155 *316:397 0.000780745
156 *316:393 0.000627174
157 *316:380 0.000636261
158 *316:372 0.000700895
159 *316:368 0.000497238
160 *316:328 0.00038711
161 *316:312 0.000557775
162 *316:281 0.00092058
163 *316:274 0.000632975
164 *316:268 0.000399688
165 *316:265 0.000760478
166 *316:253 0.000845776
167 *316:235 0.000812695
168 *316:225 0.000989227
169 *316:220 0.000988912
170 *316:210 0.000347027
171 *316:203 0.000458438
172 *316:196 0.000571647
173 *316:184 0.000539969
174 *316:174 0.000570794
175 *316:164 0.000756557
176 *316:148 0.00145491
177 *316:144 0.00117901
178 *316:136 0.000713164
179 *316:132 0.00103316
180 *316:119 0.000783155
181 *316:110 0.00101401
182 *316:92 0.00104143
183 *316:84 0.000777615
184 *316:78 0.000919813
185 *316:74 0.00107993
186 *316:71 0.000174711
187 *316:65 0.000599656
188 *316:58 0.000597685
189 *316:57 0.00115382
190 *316:50 0.000630779
191 *316:34 0.000608212
192 *316:30 0.000507878
193 *316:26 0.000539552
194 *316:24 0.000331875
195 *316:23 0.00093072
196 *316:20 0.000920975
197 *316:16 0.0011469
198 *316:11 0.000507998
199 *1047:B *1047:A 0
200 *1047:B *1048:B1 0
201 *1047:B *642:19 0
202 *1049:B *1050:B1 0
203 *1049:B *774:79 0
204 *1051:B *1053:A2 0
205 *1051:B *1053:B1 0
206 *1051:B *360:275 0
207 *1060:B *1116:B1 0
208 *1060:B *1401:RESET_B 0
209 *1060:B *694:25 0
210 *1066:B *651:21 0
211 *1066:B *773:18 0
212 *1069:B *1071:B1 0
213 *1069:B *1406:RESET_B 0
214 *1075:B *623:40 0
215 *1075:B *624:10 0
216 *1081:B *1082:A 0
217 *1081:B *1083:A1 0
218 *1090:B *1091:A 0
219 *1090:B *1407:CLK 0
220 *1090:B *628:9 0
221 *1090:B *628:17 0
222 *1093:B *603:290 0
223 *1093:B *625:21 0
224 *1096:B *1100:A 0
225 *1096:B *1105:A 0
226 *1096:B *360:106 0
227 *1096:B *629:8 0
228 *1105:B *1100:A 0
229 *1105:B *360:102 0
230 *1105:B *360:106 0
231 *1108:B *360:96 0
232 *1111:B *635:10 0
233 *1111:B *635:20 0
234 *1111:B *773:12 0
235 *1114:B *603:446 0
236 *1126:B *1126:A 0
237 *1126:B *1128:B1 0
238 *1133:B *603:663 0
239 *1133:B *603:665 0
240 *1133:B *643:17 0
241 *1136:B *1137:B 0
242 *1139:B *1139:A 0
243 *1139:B *1140:B 0
244 *1148:B *1145:A 0
245 *1148:B *1148:A 0
246 *1148:B *1425:CLK 0
247 *1148:B *692:8 0
248 *1151:B *603:390 0
249 *1151:B *694:17 0
250 *1153:B *1153:A 0
251 *1153:B *1428:CLK 0
252 *1153:B *603:390 0
253 *1157:B *1404:RESET_B 0
254 *1160:B *1161:A 0
255 *1160:B *1161:B 0
256 *1160:B *696:30 0
257 *1162:B *1164:A1 0
258 *1162:B *698:36 0
259 *1168:B *1167:A2 0
260 *1168:B *699:19 0
261 *1181:B *1181:A 0
262 *1181:B *1437:CLK 0
263 *1189:B *1440:CLK 0
264 *1193:B *767:10 0
265 *1196:B *1197:B 0
266 *1201:B *1203:B1 0
267 *1205:B *921:A1 0
268 *1205:B *1024:A 0
269 *1205:B *1044:A 0
270 *1205:B *1044:C 0
271 *1205:B *1045:D 0
272 *1205:B *1276:A 0
273 *1205:B *1445:RESET_B 0
274 *1205:B *611:33 0
275 *1205:B *656:33 0
276 *1205:B *657:12 0
277 *1205:B *657:23 0
278 *1208:B *360:21 0
279 *1208:B *617:7 0
280 *1208:B *617:11 0
281 *1210:B *1212:B1 0
282 *1210:B *617:5 0
283 *1216:B *1131:A 0
284 *1216:B *1131:B 0
285 *1223:B *1224:A 0
286 *1223:B *1224:B 0
287 *1223:B *639:18 0
288 *1225:B *1225:A 0
289 *1225:B *608:36 0
290 *1234:B *1236:B1 0
291 *1234:B *674:14 0
292 *1240:B *1239:B 0
293 *1240:B *1241:A 0
294 *1240:B *1242:B1 0
295 *1240:B *1456:CLK 0
296 *1240:B *1456:RESET_B 0
297 *1240:B *663:10 0
298 *1244:B *1230:A 0
299 *1244:B *1243:A 0
300 *1244:B *1244:A 0
301 *1244:B *609:8 0
302 *1244:B *677:11 0
303 *1250:B *1250:A 0
304 *1250:B *1459:RESET_B 0
305 *1252:B *1254:A1 0
306 *1256:B *1292:A 0
307 *1256:B *593:11 0
308 *1256:B *662:8 0
309 *1256:B *770:10 0
310 *1258:B *1258:A 0
311 *1258:B *1260:B1 0
312 *1258:B *1293:A 0
313 *1258:B *1293:B 0
314 *1264:B *1264:A 0
315 *1264:B *1266:B1 0
316 *1274:B *1179:A1 0
317 *1274:B *1179:A2 0
318 *1274:B *1275:B 0
319 *1274:B *1468:CLK 0
320 *1282:B *765:14 0
321 *1282:B *765:48 0
322 *1288:B *593:11 0
323 *1298:B *665:14 0
324 *1304:B *1302:B1 0
325 *1304:B *1305:B 0
326 *1304:B *360:428 0
327 *1310:B *928:B2 0
328 *1310:B *1308:B1 0
329 *1312:B *360:413 0
330 *1312:B *360:417 0
331 *1312:B *673:8 0
332 *1318:B *1003:A 0
333 *1318:B *1323:B 0
334 *1318:B *620:6 0
335 *1318:B *673:42 0
336 *1328:B *1329:B 0
337 *1328:B *1370:A 0
338 *1328:B *1477:CLK 0
339 *1328:B *1486:CLK 0
340 *1328:B *751:17 0
341 *1328:B *771:8 0
342 *1328:B *771:20 0
343 *316:11 *1332:A2 0
344 *316:11 *1332:B1 0
345 *316:11 *1369:A2 0
346 *316:11 *1369:B1 0
347 *316:11 *603:10 0
348 *316:11 *603:12 0
349 *316:11 *603:14 0
350 *316:11 *746:23 0
351 *316:16 *1005:B 0
352 *316:16 *1330:A 0
353 *316:20 *1005:B 0
354 *316:20 *1302:A2 0
355 *316:20 *1305:B 0
356 *316:20 *1329:A 0
357 *316:20 *1478:RESET_B 0
358 *316:20 *360:428 0
359 *316:20 *603:14 0
360 *316:20 *603:22 0
361 *316:23 *360:428 0
362 *316:23 *360:429 0
363 *316:23 *360:434 0
364 *316:24 *1296:B1 0
365 *316:24 *1486:CLK 0
366 *316:26 *664:23 0
367 *316:34 *1254:A1 0
368 *316:34 *1287:A 0
369 *316:34 *360:436 0
370 *316:34 *360:441 0
371 *316:50 *1279:A 0
372 *316:50 *1280:A 0
373 *316:50 *1281:B 0
374 *316:50 *657:35 0
375 *316:50 *659:16 0
376 *316:57 *1281:A 0
377 *316:57 *657:23 0
378 *316:57 *765:14 0
379 *316:58 *1276:A 0
380 *316:58 *1445:RESET_B 0
381 *316:65 *1186:A 0
382 *316:65 *1191:B1 0
383 *316:65 *1278:A2 0
384 *316:65 *360:446 0
385 *316:65 *604:22 0
386 *316:74 *1186:A 0
387 *316:74 *1440:CLK 0
388 *316:78 *1188:A1 0
389 *316:78 *1188:A2 0
390 *316:78 *1188:B1 0
391 *316:78 *360:472 0
392 *316:84 *1197:A 0
393 *316:84 *1197:B 0
394 *316:84 *360:472 0
395 *316:84 *767:10 0
396 *316:84 *767:14 0
397 *316:84 *767:26 0
398 *316:92 *1196:A 0
399 *316:92 *1197:B 0
400 *316:110 *1164:A1 0
401 *316:110 *1196:A 0
402 *316:110 *1200:A 0
403 *316:110 *1200:B 0
404 *316:110 *1442:RESET_B 0
405 *316:110 *1827:A 0
406 *316:110 *603:149 0
407 *316:110 *698:36 0
408 *316:110 *766:7 0
409 *316:119 *1199:A 0
410 *316:119 *1200:B 0
411 *316:119 *1203:A2 0
412 *316:119 *614:9 0
413 *316:119 *614:28 0
414 *316:119 *696:30 0
415 *316:119 *698:36 0
416 *316:119 *766:7 0
417 *316:132 *1203:A1 0
418 *316:132 *1444:RESET_B 0
419 *316:132 *603:182 0
420 *316:132 *603:189 0
421 *316:132 *696:30 0
422 *316:136 *360:96 0
423 *316:144 *1108:A 0
424 *316:144 *360:96 0
425 *316:148 *1095:B1 0
426 *316:148 *1108:A 0
427 *316:148 *1113:A1 0
428 *316:148 *1113:B1 0
429 *316:148 *360:82 0
430 *316:148 *360:96 0
431 *316:148 *773:12 0
432 *316:164 *1074:A2 0
433 *316:164 *1113:B1 0
434 *316:164 *1401:RESET_B 0
435 *316:164 *1407:RESET_B 0
436 *316:164 *360:57 0
437 *316:164 *603:446 0
438 *316:164 *603:448 0
439 *316:164 *649:23 0
440 *316:164 *773:12 0
441 *316:174 *1116:A2 0
442 *316:174 *1407:RESET_B 0
443 *316:174 *360:53 0
444 *316:174 *360:57 0
445 *316:184 *1116:A2 0
446 *316:184 *1116:B1 0
447 *316:184 *603:448 0
448 *316:184 *694:25 0
449 *316:196 *694:25 0
450 *316:203 *1049:A 0
451 *316:203 *603:434 0
452 *316:203 *774:79 0
453 *316:210 *1053:A2 0
454 *316:210 *360:269 0
455 *316:210 *360:275 0
456 *316:210 *603:434 0
457 *316:225 *1064:A 0
458 *316:225 *1065:A2 0
459 *316:225 *603:413 0
460 *316:225 *648:11 0
461 *316:225 *693:22 0
462 *316:235 *1065:A1 0
463 *316:235 *1065:B1 0
464 *316:235 *1152:A 0
465 *316:235 *1428:CLK 0
466 *316:235 *649:10 0
467 *316:235 *649:13 0
468 *316:235 *694:17 0
469 *316:235 *774:20 0
470 *316:235 *774:22 0
471 *316:253 *1053:B1 0
472 *316:253 *1056:A2 0
473 *316:253 *1056:B1 0
474 *316:253 *360:275 0
475 *316:265 *1056:B1 0
476 *316:265 *1059:A2 0
477 *316:265 *1059:B1 0
478 *316:268 *1059:B1 0
479 *316:268 *1142:A 0
480 *316:268 *1143:A2 0
481 *316:268 *603:671 0
482 *316:274 *1057:A 0
483 *316:274 *1143:A2 0
484 *316:281 *1143:A2 0
485 *316:281 *1144:A 0
486 *316:281 *1145:A 0
487 *316:281 *1146:A 0
488 *316:312 *1138:A 0
489 *316:312 *1139:A 0
490 *316:312 *1142:A 0
491 *316:328 *1138:A 0
492 *316:328 *1140:A 0
493 *316:328 *1140:B 0
494 *316:328 *643:17 0
495 *316:328 *644:8 0
496 *316:328 *644:10 0
497 *316:368 *603:189 0
498 *316:368 *613:24 0
499 *316:368 *633:22 0
500 *316:372 *360:128 0
501 *316:372 *360:130 0
502 *316:372 *603:189 0
503 *316:372 *603:191 0
504 *316:372 *603:196 0
505 *316:372 *603:207 0
506 *316:372 *633:8 0
507 *316:372 *633:22 0
508 *316:380 *1160:A 0
509 *316:380 *360:130 0
510 *316:380 *360:132 0
511 *316:380 *603:207 0
512 *316:380 *697:28 0
513 *316:393 *1104:A1 0
514 *316:393 *1104:B1 0
515 *316:393 *1161:A 0
516 *316:397 *1102:A 0
517 *316:397 *1104:B1 0
518 *316:400 *1082:A 0
519 *316:400 *1083:A1 0
520 *316:414 *1085:A 0
521 *316:414 *1086:A1 0
522 *316:414 *1086:A2 0
523 *316:414 *1086:B1 0
524 *316:425 *1085:A 0
525 *316:425 *1086:B1 0
526 *316:425 *1155:A1 0
527 *316:437 *1071:B1 0
528 *316:437 *1087:A 0
529 *316:437 *1089:B1 0
530 *316:437 *1406:RESET_B 0
531 *316:437 *626:5 0
532 *316:476 *1080:B1 0
533 *316:476 *360:167 0
534 *316:476 *360:190 0
535 *316:476 *630:7 0
536 *316:476 *630:13 0
537 *316:476 *630:26 0
538 *316:487 *1078:A 0
539 *316:487 *1080:B1 0
540 *316:487 *360:190 0
541 *316:487 *603:290 0
542 *316:487 *625:21 0
543 *316:508 *1100:A 0
544 *316:508 *360:106 0
545 *316:559 *1186:A 0
546 *316:559 *1187:A 0
547 *316:559 *1188:A2 0
548 *316:559 *603:856 0
549 *316:559 *603:858 0
550 *316:559 *656:25 0
551 *316:559 *686:30 0
552 *316:559 *690:16 0
553 *316:561 *593:11 0
554 *316:567 *1185:B1 0
555 *316:567 *1511:RESET_B 0
556 *316:567 *603:938 0
557 *316:567 *690:7 0
558 *316:567 *690:16 0
559 *316:574 *1173:B 0
560 *316:574 *1184:A 0
561 *316:574 *1185:B1 0
562 *316:574 *1434:CLK 0
563 *316:574 *1511:CLK 0
564 *316:574 *1511:RESET_B 0
565 *316:574 *603:858 0
566 *316:574 *603:938 0
567 *316:579 *1172:A 0
568 *316:579 *1174:A 0
569 *316:579 *1176:A 0
570 *316:579 *360:509 0
571 *316:579 *764:8 0
572 *316:592 *1167:A2 0
573 *316:592 *1167:B1 0
574 *316:592 *1176:A 0
575 *316:592 *1433:CLK 0
576 *316:592 *764:8 0
577 *316:615 *1176:B 0
578 *316:615 *1435:CLK 0
579 *316:615 *763:11 0
580 *316:617 *655:9 0
581 *316:627 *1270:A 0
582 *316:627 *1272:B1 0
583 *316:627 *1275:A 0
584 *316:634 *1179:A1 0
585 *316:634 *1272:A1 0
586 *316:634 *1272:B1 0
587 *316:659 *579:12 0
588 *316:659 *592:200 0
589 *316:659 *688:21 0
590 *316:664 *1181:A 0
591 *316:664 *1437:CLK 0
592 *316:688 *1268:A 0
593 *316:688 *579:12 0
594 *316:688 *592:200 0
595 *316:730 *593:11 0
596 *316:733 *1286:A 0
597 *316:733 *1287:B 0
598 *316:733 *593:11 0
599 *316:733 *770:19 0
600 *316:736 *1292:A 0
601 *316:736 *1293:A 0
602 *316:736 *1293:B 0
603 *316:811 *664:23 0
604 *316:811 *664:34 0
605 *316:811 *681:38 0
606 *316:823 *1306:A 0
607 *316:823 *1479:CLK 0
608 *316:823 *664:34 0
609 *316:823 *681:38 0
610 *316:851 *1302:B1 0
611 *316:851 *1305:B 0
612 *316:851 *360:428 0
613 *316:872 *1331:A 0
614 *316:872 *1332:A2 0
615 *316:880 *675:18 0
616 *316:884 *1324:A 0
617 *316:884 *1325:A 0
618 *316:884 *1391:SET_B 0
619 *316:884 *776:57 0
620 *316:887 *673:8 0
621 *316:889 *673:8 0
622 *316:908 *1251:B 0
623 *316:908 *1317:A 0
624 *316:908 *1317:B 0
625 *316:908 *1459:RESET_B 0
626 *316:920 *1459:RESET_B 0
627 *316:932 *1246:A 0
628 *316:932 *663:26 0
629 *316:932 *779:47 0
630 *316:935 *779:50 0
631 *316:940 *1234:A 0
632 *316:940 *1239:A 0
633 *316:940 *1456:RESET_B 0
634 *316:940 *663:10 0
635 *316:940 *663:26 0
636 *316:940 *779:50 0
637 *316:945 *360:394 0
638 *316:945 *610:48 0
639 *316:945 *663:26 0
640 *316:945 *674:14 0
641 *316:950 *1233:B1 0
642 *316:950 *610:14 0
643 *316:950 *610:48 0
644 *316:950 *663:26 0
645 *316:956 *1123:A 0
646 *316:956 *639:18 0
647 *316:956 *778:20 0
648 *316:956 *778:26 0
649 *316:961 *1122:B 0
650 *316:961 *1224:A 0
651 *316:961 *663:26 0
652 *316:961 *778:26 0
653 *316:963 *1119:A2 0
654 *316:963 *1224:A 0
655 *316:963 *1416:CLK 0
656 *316:963 *360:325 0
657 *316:963 *663:26 0
658 *316:965 *1119:A2 0
659 *316:965 *1119:B1 0
660 *316:965 *1212:A2 0
661 *316:965 *1416:CLK 0
662 *316:965 *360:325 0
663 *316:970 *1212:A2 0
664 *316:970 *360:22 0
665 *316:970 *360:24 0
666 *316:970 *360:325 0
667 *316:970 *642:19 0
668 *316:995 *1117:A 0
669 *316:995 *1416:CLK 0
670 *316:995 *360:337 0
671 *316:999 *1118:A 0
672 *316:999 *1416:CLK 0
673 *316:999 *1446:RESET_B 0
674 *316:999 *618:37 0
675 *316:1016 *618:37 0
676 *316:1016 *619:18 0
677 *316:1016 *644:22 0
678 *316:1026 *1213:A 0
679 *316:1026 *1215:B1 0
680 *316:1026 *1221:A 0
681 *316:1026 *1449:CLK 0
682 *316:1026 *606:17 0
683 *316:1026 *619:18 0
684 *316:1026 *775:54 0
685 *316:1038 *1420:CLK 0
686 *316:1038 *605:13 0
687 *316:1038 *606:8 0
688 *316:1038 *606:17 0
689 *316:1038 *640:20 0
690 *316:1038 *641:17 0
691 *316:1052 *1129:A 0
692 *316:1052 *1130:A 0
693 *316:1052 *1131:A 0
694 *316:1062 *1129:A 0
695 *316:1062 *1130:A 0
696 *316:1062 *1228:A 0
697 *316:1062 *608:12 0
698 *316:1064 *1126:A 0
699 *316:1064 *1228:A 0
700 *316:1064 *1230:A 0
701 *316:1069 *1230:B 0
702 *1002:B *316:880 0
703 *1050:A1 *316:196 0
704 *1058:B *316:265 0
705 *1082:B *1081:B 0
706 *1091:B *1090:B 0
707 *1142:B *316:265 0
708 *1163:B *316:110 0
709 *1207:B *1208:B 0
710 *1228:B *316:1062 0
711 *1228:B *316:1064 0
712 *1243:B *1244:B 0
713 *1247:B *316:932 0
714 *1259:B *1258:B 0
715 *1273:B *316:617 0
716 *1273:B *316:627 0
717 *1279:B *316:57 0
718 *1285:B *316:34 0
719 *1285:B *316:50 0
720 *1331:B *316:872 0
721 *1393:D *316:203 0
722 *1394:D *316:225 0
723 *1395:D *316:253 0
724 *1396:D *316:265 0
725 *1398:D *316:235 0
726 *1399:D *1066:B 0
727 *1400:D *316:425 0
728 *1404:D *316:400 0
729 *1405:D *316:414 0
730 *1408:D *316:148 0
731 *1411:D *1160:B 0
732 *1411:D *316:393 0
733 *1414:D *316:148 0
734 *1414:D *316:164 0
735 *1420:D *1216:B 0
736 *1422:D *1136:B 0
737 *1432:D *316:592 0
738 *1440:D *316:65 0
739 *1441:D *316:84 0
740 *1442:D *316:84 0
741 *1444:D *1201:B 0
742 *1446:D *1208:B 0
743 *1450:D *316:1038 0
744 *1451:D *1223:B 0
745 *1453:D *1126:B 0
746 *1453:D *316:1069 0
747 *1455:D *1234:B 0
748 *1455:D *316:940 0
749 *1459:D *316:920 0
750 *1460:D *316:908 0
751 *1466:D *316:659 0
752 *1466:D *316:688 0
753 *1471:D *1282:B 0
754 *1471:D *316:34 0
755 *1472:D *316:733 0
756 *1474:D *1258:B 0
757 *1477:D *316:20 0
758 *1478:D *316:20 0
759 *1481:D *1312:B 0
760 *1482:D *316:908 0
761 *142:7 *1047:B 0
762 *142:7 *316:970 0
763 *182:7 *1162:B 0
764 *219:20 *1310:B 0
765 *242:20 *1318:B 0
766 *248:13 *1312:B 0
767 *248:13 *1318:B 0
768 *248:13 *316:884 0
769 *248:13 *316:887 0
770 *248:13 *316:889 0
771 *315:87 *316:24 0
772 *315:89 *316:26 0
773 *315:89 *316:30 0
774 *315:93 *316:30 0
775 *315:93 *316:34 0
776 *315:145 *316:559 0
777 *315:156 *1288:B 0
778 *315:156 *316:559 0
779 *315:156 *316:561 0
780 *315:194 *316:65 0
781 *315:194 *316:78 0
782 *315:199 *316:78 0
783 *315:199 *316:84 0
784 *315:205 *316:84 0
785 *315:373 *316:110 0
786 *315:637 *1114:B 0
787 *315:680 *316:965 0
788 *315:680 *316:970 0
789 *315:715 *316:963 0
790 *315:735 *316:963 0
791 *315:769 *1250:B 0
792 *315:769 *316:920 0
793 *315:774 *316:920 0
794 *315:774 *316:932 0
795 *315:878 *316:1052 0
796 *315:968 *316:268 0
797 *315:968 *316:312 0
798 *315:981 *1136:B 0
*RES
1 *1001:X *316:11 28.2286 
2 *316:11 *316:16 5.76786 
3 *316:16 *316:20 14.0357 
4 *316:20 *316:23 12.8393 
5 *316:23 *316:24 4.67857 
6 *316:24 *316:26 2.85714 
7 *316:26 *316:30 8.875 
8 *316:30 *316:34 10.192 
9 *316:34 *1282:B 15.5188 
10 *316:34 *316:50 10.8973 
11 *316:50 *316:57 16.2679 
12 *316:57 *316:58 1.76786 
13 *316:58 *316:65 14.9375 
14 *316:65 *316:71 6.54464 
15 *316:71 *316:74 6.26786 
16 *316:74 *316:78 13.375 
17 *316:78 *316:84 19.6071 
18 *316:84 *1196:B 9.72857 
19 *316:84 *316:92 5.875 
20 *316:92 *1162:B 20.7821 
21 *316:92 *316:110 23.4286 
22 *316:110 *316:119 12.25 
23 *316:119 *316:132 12.7143 
24 *316:132 *316:136 11.6429 
25 *316:136 *1108:B 9.72857 
26 *316:136 *316:144 3 
27 *316:144 *316:148 19.4464 
28 *316:148 *1111:B 19.0321 
29 *316:148 *316:164 19.7857 
30 *316:164 *1072:B 9.3 
31 *316:164 *316:174 9.98214 
32 *316:174 *1060:B 18.7286 
33 *316:174 *316:184 1.94643 
34 *316:184 *1114:B 14.7464 
35 *316:184 *316:196 13.5982 
36 *316:196 *316:203 8.04464 
37 *316:203 *316:210 10.3929 
38 *316:210 *1051:B 10.675 
39 *316:210 *316:220 0.535714 
40 *316:220 *316:225 19.1429 
41 *316:225 *1063:B 9.3 
42 *316:225 *316:235 16.3571 
43 *316:235 *1153:B 14.3357 
44 *316:235 *1151:B 18.9786 
45 *316:220 *316:253 11.2143 
46 *316:253 *1054:B 9.72857 
47 *316:253 *316:265 10.8036 
48 *316:265 *316:268 7.96429 
49 *316:268 *316:274 9.875 
50 *316:274 *316:281 13.2857 
51 *316:281 *1148:B 20.5857 
52 *316:281 *1145:B 9.3 
53 *316:274 *1141:B 13.8 
54 *316:268 *1057:B 9.3 
55 *316:265 *316:312 11.6071 
56 *316:312 *1139:B 11.2286 
57 *316:312 *316:328 8.30357 
58 *316:328 *1136:B 16.8357 
59 *316:328 *1133:B 15.4429 
60 *316:203 *1049:B 14.3357 
61 *316:196 *1050:A2 9.3 
62 *316:144 *1075:B 20.8536 
63 *316:132 *316:368 6.90179 
64 *316:368 *316:372 8.09821 
65 *316:372 *316:380 12.2679 
66 *316:380 *1160:B 11.8 
67 *316:380 *316:393 3.85714 
68 *316:393 *316:397 9.48214 
69 *316:397 *316:400 7.05357 
70 *316:400 *1081:B 15.7464 
71 *316:400 *316:414 15.2321 
72 *316:414 *1084:B 9.3 
73 *316:414 *316:425 15.2143 
74 *316:425 *1087:B 13.8 
75 *316:425 *316:437 12.6429 
76 *316:437 *1066:B 20.8536 
77 *316:437 *1069:B 10.2643 
78 *316:397 *1157:B 13.9786 
79 *316:393 *1102:B 9.3 
80 *316:372 *316:469 4.5 
81 *316:469 *1099:B 9.3 
82 *316:469 *316:476 13.6964 
83 *316:476 *1078:B 9.72857 
84 *316:476 *316:487 16.9107 
85 *316:487 *1090:B 20.4071 
86 *316:487 *1093:B 14.5321 
87 *316:368 *316:508 5.3125 
88 *316:508 *1105:B 9.72857 
89 *316:508 *1096:B 23.1036 
90 *316:119 *1201:B 14.7464 
91 *316:110 *1199:B 9.3 
92 *316:78 *1193:B 10.2464 
93 *316:74 *316:559 18.7713 
94 *316:559 *316:561 0.580357 
95 *316:561 *316:567 15.0893 
96 *316:567 *316:574 17.6071 
97 *316:574 *316:579 11.8393 
98 *316:579 *316:592 17.4464 
99 *316:592 *1165:B 9.3 
100 *316:592 *1168:B 24.6214 
101 *316:579 *316:615 10.8036 
102 *316:615 *316:617 5.875 
103 *316:617 *316:627 3.28571 
104 *316:627 *316:634 10.2857 
105 *316:634 *1274:B 21.6214 
106 *316:634 *1177:B 14.7464 
107 *316:627 *1270:B 9.3 
108 *316:617 *316:659 10.6964 
109 *316:659 *316:664 10.6964 
110 *316:664 *1268:B 11.0857 
111 *316:664 *1181:B 9.72857 
112 *316:659 *316:688 19.8702 
113 *316:688 *1264:B 11.5143 
114 *316:688 *1262:B 9.3 
115 *316:615 *1175:B 10.0321 
116 *316:574 *1172:B 9.3 
117 *316:567 *1183:B 13.8 
118 *316:561 *1288:B 15.7464 
119 *316:559 *316:730 11.0804 
120 *316:730 *316:733 14.6429 
121 *316:733 *316:736 11.6071 
122 *316:736 *1292:B 9.72857 
123 *316:736 *1258:B 17.5679 
124 *316:733 *1256:B 16.3536 
125 *316:730 *1286:B 9.3 
126 *316:71 *1186:B 9.3 
127 *316:65 *1189:B 14.6125 
128 *316:58 *1276:B 10.0321 
129 *316:57 *1205:B 34.05 
130 *316:50 *1280:B 9.72857 
131 *316:30 *1252:B 10.6571 
132 *316:26 *316:811 9.14286 
133 *316:811 *1298:B 19.0321 
134 *316:811 *316:823 18.9286 
135 *316:823 *1310:B 23.2821 
136 *316:823 *1306:B 9.3 
137 *316:24 *1294:B 13.8 
138 *316:23 *1328:B 20.7821 
139 *316:20 *316:851 2.17857 
140 *316:851 *1300:B 9.72857 
141 *316:851 *1304:B 11.0857 
142 *316:16 *316:872 18.625 
143 *316:872 *316:880 12.4365 
144 *316:880 *316:884 11.5446 
145 *316:884 *316:886 4.5 
146 *316:886 *316:887 2.55357 
147 *316:887 *316:889 1.94643 
148 *316:889 *1312:B 20.2821 
149 *316:889 *316:908 24.7232 
150 *316:908 *1250:B 14.0768 
151 *316:908 *316:920 11.0982 
152 *316:920 *1246:B 9.3 
153 *316:920 *316:932 14.0357 
154 *316:932 *316:935 5.23214 
155 *316:935 *316:940 9 
156 *316:940 *316:945 9.125 
157 *316:945 *316:950 14.1964 
158 *316:950 *316:956 13.8036 
159 *316:956 *316:961 10.25 
160 *316:961 *316:963 8.01786 
161 *316:963 *316:965 4.375 
162 *316:965 *316:970 16.5536 
163 *316:970 *1047:B 11.8893 
164 *316:970 *1048:A2 9.3 
165 *316:965 *1208:B 20.1036 
166 *316:963 *316:995 14.3571 
167 *316:995 *316:999 2.78571 
168 *316:999 *1210:B 15.1571 
169 *316:999 *316:1016 13.0736 
170 *316:1016 *1213:B 9.3 
171 *316:1016 *316:1026 16.6429 
172 *316:1026 *1220:B 13.8 
173 *316:1026 *316:1038 9.3364 
174 *316:1038 *1216:B 19.0411 
175 *316:1038 *316:1052 5.99107 
176 *316:1052 *1130:B 9.3 
177 *316:1052 *316:1062 13.8036 
178 *316:1062 *316:1064 4.98214 
179 *316:1064 *316:1069 7.51786 
180 *316:1069 *1229:B 9.3 
181 *316:1069 *1126:B 12.7464 
182 *316:1064 *1244:B 23.55 
183 *316:1062 *1225:B 15.3 
184 *316:995 *1117:B 13.8 
185 *316:961 *1121:B 13.8 
186 *316:956 *1223:B 11.0857 
187 *316:950 *1123:B 9.3 
188 *316:945 *1231:B 13.8 
189 *316:940 *1234:B 10.6571 
190 *316:935 *1240:B 28.8714 
191 *316:932 *1238:B 9.3 
192 *316:887 *1316:B 16.8 
193 *316:886 *1318:B 25.7821 
194 *316:884 *1322:B 10.2643 
195 *316:880 *1003:B 14.0768 
196 *316:872 *1324:B 9.3 
197 *316:11 *1330:B 9.3 
*END

*D_NET *317 0.000498312
*CONN
*I *1004:A I *D sky130_fd_sc_hd__nand2_1
*I *1002:Y O *D sky130_fd_sc_hd__nand2_1
*CAP
1 *1004:A 0.000249156
2 *1002:Y 0.000249156
3 *1004:A *1002:A 0
4 *1004:A *1324:A 0
5 *219:20 *1004:A 0
*RES
1 *1002:Y *1004:A 32.9571 
*END

*D_NET *318 0.000289202
*CONN
*I *1004:B I *D sky130_fd_sc_hd__nand2_1
*I *1003:Y O *D sky130_fd_sc_hd__nand2_1
*CAP
1 *1004:B 0.000144601
2 *1003:Y 0.000144601
3 *1004:B *1323:B 0
4 *1004:B *1324:A 0
*RES
1 *1003:Y *1004:B 21.6179 
*END

*D_NET *319 0.000936131
*CONN
*I *1009:C I *D sky130_fd_sc_hd__nand4_1
*I *1005:Y O *D sky130_fd_sc_hd__nor3b_1
*CAP
1 *1009:C 0.000468065
2 *1005:Y 0.000468065
3 *1009:C *948:B2 0
4 *1009:C *1031:C 0
5 *1009:C *1300:A 0
6 *1009:C *1304:A 0
7 *1009:C *1478:RESET_B 0
8 *1009:C *603:22 0
9 *1009:C *667:23 0
*RES
1 *1005:Y *1009:C 37.725 
*END

*D_NET *320 0.000458757
*CONN
*I *1007:C I *D sky130_fd_sc_hd__nand3_1
*I *1006:Y O *D sky130_fd_sc_hd__nor2_1
*CAP
1 *1007:C 0.000229378
2 *1006:Y 0.000229378
3 *1007:C *901:C2 0
4 *1007:C *936:B2 0
5 *1007:C *669:10 0
6 *242:20 *1007:C 0
*RES
1 *1006:Y *1007:C 32.5464 
*END

*D_NET *321 0.000603614
*CONN
*I *1008:C I *D sky130_fd_sc_hd__nor3_1
*I *1007:Y O *D sky130_fd_sc_hd__nand3_1
*CAP
1 *1008:C 0.000301807
2 *1007:Y 0.000301807
3 *1008:C *941:B2 0
4 *1008:C *1009:D 0
5 *1008:C *669:27 0
6 *1480:D *1008:C 0
*RES
1 *1007:Y *1008:C 34.0821 
*END

*D_NET *322 0.00152184
*CONN
*I *1009:D I *D sky130_fd_sc_hd__nand4_1
*I *1008:Y O *D sky130_fd_sc_hd__nor3_1
*CAP
1 *1009:D 0.00076092
2 *1008:Y 0.00076092
3 *1009:D *941:B2 0
4 *1009:D *1009:B 0
5 *1009:D *1308:A2 0
6 *1009:D *1308:B1 0
7 *1009:D *1311:A 0
8 *1009:D *667:23 0
9 *1009:D *667:31 0
10 *1009:D *668:5 0
11 *1009:D *669:27 0
12 *1009:D *669:35 0
13 *1008:C *1009:D 0
14 *1480:D *1009:D 0
15 *315:32 *1009:D 0
*RES
1 *1008:Y *1009:D 43.5643 
*END

*D_NET *323 0.00165496
*CONN
*I *1031:C I *D sky130_fd_sc_hd__nor4_1
*I *1009:Y O *D sky130_fd_sc_hd__nand4_1
*CAP
1 *1031:C 0.000827478
2 *1009:Y 0.000827478
3 *1031:C *907:C1 0
4 *1031:C *948:B2 0
5 *1031:C *1304:A 0
6 *1031:C *665:8 0
7 *1031:C *667:23 0
8 *907:C2 *1031:C 0
9 *948:C1 *1031:C 0
10 *953:A1 *1031:C 0
11 *1009:C *1031:C 0
12 *232:37 *1031:C 0
*RES
1 *1009:Y *1031:C 46.1 
*END

*D_NET *324 0.000249843
*CONN
*I *1011:C I *D sky130_fd_sc_hd__nand3_1
*I *1010:Y O *D sky130_fd_sc_hd__nor2_1
*CAP
1 *1011:C 0.000124921
2 *1010:Y 0.000124921
3 *1011:C *1010:B 0
4 *1011:C *1013:C 0
*RES
1 *1010:Y *1011:C 21.2071 
*END

*D_NET *325 0.000515021
*CONN
*I *1013:C I *D sky130_fd_sc_hd__nor4_1
*I *1011:Y O *D sky130_fd_sc_hd__nand3_1
*CAP
1 *1013:C 0.000257511
2 *1011:Y 0.000257511
3 *1013:C *921:B2 0
4 *1013:C *1010:A 0
5 *1013:C *1013:D 0
6 *1013:C *1280:A 0
7 *1013:C *682:50 0
8 *1011:C *1013:C 0
*RES
1 *1011:Y *1013:C 33.3321 
*END

*D_NET *326 0.000171463
*CONN
*I *1013:D I *D sky130_fd_sc_hd__nor4_1
*I *1012:Y O *D sky130_fd_sc_hd__nand2_1
*CAP
1 *1013:D 8.57316e-05
2 *1012:Y 8.57316e-05
3 *1013:D *682:50 0
4 *1013:D *682:66 0
5 *1013:D *683:29 0
6 *1013:C *1013:D 0
*RES
1 *1012:Y *1013:D 29.5464 
*END

*D_NET *327 0.000248132
*CONN
*I *1030:C I *D sky130_fd_sc_hd__nand4_1
*I *1013:Y O *D sky130_fd_sc_hd__nor4_1
*CAP
1 *1030:C 0.000124066
2 *1013:Y 0.000124066
3 *1030:C *658:27 0
*RES
1 *1013:Y *1030:C 21.1893 
*END

*D_NET *328 0.000436736
*CONN
*I *1015:C I *D sky130_fd_sc_hd__nor3_1
*I *1014:Y O *D sky130_fd_sc_hd__nand2_1
*CAP
1 *1015:C 0.000218368
2 *1014:Y 0.000218368
3 *1015:C *1254:A2 0
4 *1015:C *1461:CLK 0
5 *1015:C *665:11 0
6 *1015:C *680:32 0
7 *315:93 *1015:C 0
*RES
1 *1014:Y *1015:C 32.5107 
*END

*D_NET *329 0.00047578
*CONN
*I *1030:D I *D sky130_fd_sc_hd__nand4_1
*I *1015:Y O *D sky130_fd_sc_hd__nor3_1
*CAP
1 *1030:D 0.00023789
2 *1015:Y 0.00023789
3 *1030:D *913:C2 0
4 *1030:D *914:B2 0
5 *1030:D *680:32 0
6 *1253:B *1030:D 0
*RES
1 *1015:Y *1030:D 32.9214 
*END

*D_NET *330 0.000474548
*CONN
*I *1039:C I *D sky130_fd_sc_hd__nand4_1
*I *1016:Y O *D sky130_fd_sc_hd__nor4b_1
*CAP
1 *1039:C 0.000237274
2 *1016:Y 0.000237274
3 *1039:C *1039:B 0
4 *1039:C *1039:D 0
5 *1039:C *605:47 0
6 *1039:C *765:135 0
*RES
1 *1016:Y *1039:C 32.8321 
*END

*D_NET *331 0.000287118
*CONN
*I *1018:C I *D sky130_fd_sc_hd__nand3_1
*I *1017:Y O *D sky130_fd_sc_hd__nor2_1
*CAP
1 *1018:C 0.000143559
2 *1017:Y 0.000143559
3 *1018:C *917:A1 0
4 *1018:C *1038:B 0
5 *1018:C *652:16 0
6 *1018:C *728:11 0
*RES
1 *1017:Y *1018:C 35.916 
*END

*D_NET *332 0.000274698
*CONN
*I *1038:B I *D sky130_fd_sc_hd__nor3b_1
*I *1018:Y O *D sky130_fd_sc_hd__nand3_1
*CAP
1 *1038:B 0.000137349
2 *1018:Y 0.000137349
3 *1038:B *901:B2 0
4 *1038:B *652:16 0
5 *1018:C *1038:B 0
*RES
1 *1018:Y *1038:B 30.6 
*END

*D_NET *333 0.000169414
*CONN
*I *1036:C I *D sky130_fd_sc_hd__nor4_1
*I *1019:Y O *D sky130_fd_sc_hd__nand4_1
*CAP
1 *1036:C 8.4707e-05
2 *1019:Y 8.4707e-05
3 *1036:C *1019:C 0
*RES
1 *1019:Y *1036:C 20.3679 
*END

*D_NET *334 0.000249843
*CONN
*I *1034:A I *D sky130_fd_sc_hd__nor4_1
*I *1020:Y O *D sky130_fd_sc_hd__nand4_1
*CAP
1 *1034:A 0.000124921
2 *1020:Y 0.000124921
3 *1034:A *1034:B 0
4 *1034:A *1034:D 0
5 *1034:A *1037:C 0
*RES
1 *1020:Y *1034:A 21.2071 
*END

*D_NET *335 0.00100365
*CONN
*I *1034:B I *D sky130_fd_sc_hd__nor4_1
*I *1021:Y O *D sky130_fd_sc_hd__nand4_1
*CAP
1 *1034:B 0.000501825
2 *1021:Y 0.000501825
3 *1034:B *929:A1 0
4 *1034:B *929:C2 0
5 *1034:B *933:A 0
6 *1034:B *1020:B 0
7 *1034:B *1020:C 0
8 *1034:B *1020:D 0
9 *1034:B *1034:D 0
10 *1034:A *1034:B 0
*RES
1 *1021:Y *1034:B 29.1357 
*END

*D_NET *336 0.000650475
*CONN
*I *1023:D I *D sky130_fd_sc_hd__nand4_1
*I *1022:Y O *D sky130_fd_sc_hd__nor4b_1
*CAP
1 *1023:D 0.000325238
2 *1022:Y 0.000325238
3 *1023:D *900:C2 0
4 *1023:D *907:A1 0
5 *1023:D *1023:C 0
6 *1023:D *1044:A 0
7 *1023:D *1206:A 0
*RES
1 *1022:Y *1023:D 34.9393 
*END

*D_NET *337 0.000344875
*CONN
*I *1045:B I *D sky130_fd_sc_hd__or4_1
*I *1023:Y O *D sky130_fd_sc_hd__nand4_1
*CAP
1 *1045:B 0.000172437
2 *1023:Y 0.000172437
3 *1045:B *900:C2 0
4 *1045:B *914:C2 0
5 *1045:B *611:33 0
*RES
1 *1023:Y *1045:B 31.225 
*END

*D_NET *338 0.00044471
*CONN
*I *1044:C I *D sky130_fd_sc_hd__nand4_1
*I *1024:Y O *D sky130_fd_sc_hd__nor4b_1
*CAP
1 *1044:C 0.000222355
2 *1024:Y 0.000222355
3 *1044:C *655:38 0
4 *1044:C *656:33 0
5 *1205:B *1044:C 0
6 *315:371 *1044:C 0
*RES
1 *1024:Y *1044:C 32.35 
*END

*D_NET *339 0.000366208
*CONN
*I *1027:B I *D sky130_fd_sc_hd__nand3_1
*I *1025:Y O *D sky130_fd_sc_hd__nor4b_1
*CAP
1 *1027:B 0.000183104
2 *1025:Y 0.000183104
3 *1027:B *915:B2 0
4 *1027:B *930:B2 0
5 *1027:B *1028:B 0
6 *1027:B *1037:C 0
7 *1027:B *694:25 0
*RES
1 *1025:Y *1027:B 22.4214 
*END

*D_NET *340 0.000673815
*CONN
*I *1027:C I *D sky130_fd_sc_hd__nand3_1
*I *1026:Y O *D sky130_fd_sc_hd__nor2_1
*CAP
1 *1027:C 0.000336908
2 *1026:Y 0.000336908
3 *1027:C *898:A1 0
4 *1027:C *915:B2 0
5 *1027:C *626:32 0
6 *1027:C *634:36 0
*RES
1 *1026:Y *1027:C 34.8143 
*END

*D_NET *341 0.000274698
*CONN
*I *1028:B I *D sky130_fd_sc_hd__nor2_1
*I *1027:Y O *D sky130_fd_sc_hd__nand3_1
*CAP
1 *1028:B 0.000137349
2 *1027:Y 0.000137349
3 *1028:B *1037:C 0
4 *1028:B *634:36 0
5 *1027:B *1028:B 0
*RES
1 *1027:Y *1028:B 30.6 
*END

*D_NET *342 0.000235339
*CONN
*I *1037:A I *D sky130_fd_sc_hd__nand4_1
*I *1028:Y O *D sky130_fd_sc_hd__nor2_1
*CAP
1 *1037:A 0.000117669
2 *1028:Y 0.000117669
3 *1037:A *1028:A 0
4 *1037:A *1037:D 0
5 *1037:A *634:36 0
*RES
1 *1028:Y *1037:A 30.1893 
*END

*D_NET *343 0.000419516
*CONN
*I *1041:D I *D sky130_fd_sc_hd__nor4_1
*I *1029:Y O *D sky130_fd_sc_hd__nand2_1
*CAP
1 *1041:D 0.000209758
2 *1029:Y 0.000209758
3 *1041:D *935:A1 0
4 *1041:D *1041:C 0
5 *1041:D *605:47 0
6 *1041:D *641:40 0
7 *227:13 *1041:D 0
*RES
1 *1029:Y *1041:D 32.1357 
*END

*D_NET *344 0.000367919
*CONN
*I *1031:D I *D sky130_fd_sc_hd__nor4_1
*I *1030:Y O *D sky130_fd_sc_hd__nand4_1
*CAP
1 *1031:D 0.00018396
2 *1030:Y 0.00018396
3 *1031:D *945:A1 0
*RES
1 *1030:Y *1031:D 22.4393 
*END

*D_NET *345 0.00459541
*CONN
*I *1037:B I *D sky130_fd_sc_hd__nand4_1
*I *1031:Y O *D sky130_fd_sc_hd__nor4_1
*CAP
1 *1037:B 0.000918328
2 *1031:Y 0.00137938
3 *345:11 0.0022977
4 *1037:B *908:A1 0
5 *1037:B *915:A1 0
6 *1037:B *942:A1 0
7 *1037:B *1035:D 0
8 *1037:B *1037:D 0
9 *345:11 *919:A 0
10 *345:11 *923:C2 0
11 *345:11 *933:A 0
12 *345:11 *937:C2 0
13 *345:11 *945:B2 0
14 *345:11 *948:C2 0
15 *345:11 *1205:A 0
16 *345:11 *1445:RESET_B 0
17 *345:11 *616:25 0
18 *907:C2 *345:11 0
19 *929:C1 *345:11 0
20 *931:A *345:11 0
21 *937:B1 *345:11 0
22 *233:67 *345:11 0
23 *233:75 *345:11 0
24 *235:49 *345:11 0
25 *236:49 *345:11 0
26 *252:14 *1037:B 0
27 *273:19 *1037:B 0
*RES
1 *1031:Y *345:11 48.1571 
2 *345:11 *1037:B 46.8357 
*END

*D_NET *346 0.000169414
*CONN
*I *1034:C I *D sky130_fd_sc_hd__nor4_1
*I *1032:Y O *D sky130_fd_sc_hd__nand2_1
*CAP
1 *1034:C 8.4707e-05
2 *1032:Y 8.4707e-05
*RES
1 *1032:Y *1034:C 20.3679 
*END

*D_NET *347 0.000413267
*CONN
*I *1034:D I *D sky130_fd_sc_hd__nor4_1
*I *1033:Y O *D sky130_fd_sc_hd__nand2_1
*CAP
1 *1034:D 0.000206634
2 *1033:Y 0.000206634
3 *1034:D *930:B2 0
4 *1034:D *1032:A 0
5 *1034:D *1033:A 0
6 *1034:A *1034:D 0
7 *1034:B *1034:D 0
*RES
1 *1033:Y *1034:D 22.975 
*END

*D_NET *348 0.00174073
*CONN
*I *1037:C I *D sky130_fd_sc_hd__nand4_1
*I *1034:Y O *D sky130_fd_sc_hd__nor4_1
*CAP
1 *1037:C 0.000870364
2 *1034:Y 0.000870364
3 *1037:C *915:B2 0
4 *1037:C *930:B2 0
5 *1037:C *1025:C 0
6 *1037:C *1032:A 0
7 *1037:C *1037:D 0
8 *1037:C *626:32 0
9 *1037:C *634:36 0
10 *1027:B *1037:C 0
11 *1028:B *1037:C 0
12 *1034:A *1037:C 0
*RES
1 *1034:Y *1037:C 46.0643 
*END

*D_NET *349 0.000210484
*CONN
*I *1036:D I *D sky130_fd_sc_hd__nor4_1
*I *1035:Y O *D sky130_fd_sc_hd__nand4_1
*CAP
1 *1036:D 0.000105242
2 *1035:Y 0.000105242
3 *1036:D *1019:D 0
4 *1036:D *1037:D 0
*RES
1 *1035:Y *1036:D 20.7964 
*END

*D_NET *350 0.000760971
*CONN
*I *1037:D I *D sky130_fd_sc_hd__nand4_1
*I *1036:Y O *D sky130_fd_sc_hd__nor4_1
*CAP
1 *1037:D 0.000380486
2 *1036:Y 0.000380486
3 *1037:D *1019:D 0
4 *1037:D *1035:D 0
5 *1036:D *1037:D 0
6 *1037:A *1037:D 0
7 *1037:B *1037:D 0
8 *1037:C *1037:D 0
*RES
1 *1036:Y *1037:D 35.725 
*END

*D_NET *351 0.00068527
*CONN
*I *1046:A I *D sky130_fd_sc_hd__nor4_1
*I *1037:Y O *D sky130_fd_sc_hd__nand4_1
*CAP
1 *1046:A 0.000342635
2 *1037:Y 0.000342635
3 *1046:A *915:A1 0
4 *1046:A *935:A1 0
5 *1046:A *950:C2 0
6 *1046:A *1046:C 0
7 *1046:A *1046:D 0
*RES
1 *1037:Y *1046:A 35.0821 
*END

*D_NET *352 0.00144945
*CONN
*I *1039:D I *D sky130_fd_sc_hd__nand4_1
*I *1038:Y O *D sky130_fd_sc_hd__nor3b_1
*CAP
1 *1039:D 0.000724726
2 *1038:Y 0.000724726
3 *1039:D *935:B2 0
4 *1039:D *1029:A 0
5 *1039:D *1039:B 0
6 *1039:D *608:12 0
7 *1039:D *620:41 0
8 *1039:D *638:18 0
9 *1039:D *726:13 0
10 *1039:D *726:18 0
11 *1039:D *765:127 0
12 *1039:D *765:135 0
13 *894:A *1039:D 0
14 *1039:C *1039:D 0
*RES
1 *1038:Y *1039:D 43.8143 
*END

*D_NET *353 0.00104516
*CONN
*I *1046:B I *D sky130_fd_sc_hd__nor4_1
*I *1039:Y O *D sky130_fd_sc_hd__nand4_1
*CAP
1 *1046:B 0.000522581
2 *1039:Y 0.000522581
3 *1046:B *910:A1 0
4 *1046:B *935:A1 0
5 *1046:B *950:C2 0
6 *1046:B *1046:C 0
7 *1046:B *663:27 0
8 *950:A2 *1046:B 0
9 *230:12 *1046:B 0
*RES
1 *1039:Y *1046:B 38.7786 
*END

*D_NET *354 0.000933824
*CONN
*I *1046:C I *D sky130_fd_sc_hd__nor4_1
*I *1040:Y O *D sky130_fd_sc_hd__nand4b_1
*CAP
1 *1046:C 0.000466912
2 *1040:Y 0.000466912
3 *1046:C *935:A1 0
4 *1046:C *950:C2 0
5 *1046:C *1039:A 0
6 *1046:C *1046:D 0
7 *1046:C *618:37 0
8 *1046:A *1046:C 0
9 *1046:B *1046:C 0
10 *1207:B *1046:C 0
*RES
1 *1040:Y *1046:C 46.7607 
*END

*D_NET *355 0.000938604
*CONN
*I *1042:D I *D sky130_fd_sc_hd__nand4_1
*I *1041:Y O *D sky130_fd_sc_hd__nor4_1
*CAP
1 *1042:D 0.000469302
2 *1041:Y 0.000469302
3 *1042:D *900:A1 0
4 *1042:D *950:A1 0
5 *1042:D *636:23 0
6 *1042:D *641:40 0
7 *900:B1 *1042:D 0
8 *950:A2 *1042:D 0
9 *227:13 *1042:D 0
10 *227:49 *1042:D 0
11 *230:12 *1042:D 0
*RES
1 *1041:Y *1042:D 37.9214 
*END

*D_NET *356 0.00328851
*CONN
*I *1045:C I *D sky130_fd_sc_hd__or4_1
*I *1042:Y O *D sky130_fd_sc_hd__nand4_1
*CAP
1 *1045:C 0.00164426
2 *1042:Y 0.00164426
3 *1045:C *907:B2 0
4 *1045:C *908:B2 0
5 *1045:C *926:A 0
6 *1045:C *929:B2 0
7 *1045:C *937:B2 0
8 *1045:C *942:A1 0
9 *1045:C *943:A1 0
10 *1045:C *1042:A 0
11 *1045:C *611:33 0
12 *1045:C *616:25 0
13 *1045:C *616:39 0
14 *233:67 *1045:C 0
15 *284:26 *1045:C 0
*RES
1 *1042:Y *1045:C 43.7987 
*END

*D_NET *357 0.000542039
*CONN
*I *1044:D I *D sky130_fd_sc_hd__nand4_1
*I *1043:X O *D sky130_fd_sc_hd__lpflow_isobufsrc_1
*CAP
1 *1044:D 0.000271019
2 *1043:X 0.000271019
3 *1044:D *907:A1 0
4 *1044:D *1024:A 0
5 *1044:D *1024:B 0
6 *1044:D *1043:SLEEP 0
7 *1044:D *699:25 0
8 *1445:D *1044:D 0
*RES
1 *1043:X *1044:D 33.6357 
*END

*D_NET *358 0.000525354
*CONN
*I *1045:D I *D sky130_fd_sc_hd__or4_1
*I *1044:Y O *D sky130_fd_sc_hd__nand4_1
*CAP
1 *1045:D 0.000262677
2 *1044:Y 0.000262677
3 *1045:D *1044:A 0
4 *1045:D *1206:B 0
5 *1045:D *611:33 0
6 *1205:B *1045:D 0
*RES
1 *1044:Y *1045:D 24.0821 
*END

*D_NET *359 0.00357857
*CONN
*I *1046:D I *D sky130_fd_sc_hd__nor4_1
*I *1045:X O *D sky130_fd_sc_hd__or4_1
*CAP
1 *1046:D 0.0001114
2 *1045:X 0.00167788
3 *359:31 0.00178928
4 *1046:D *950:C2 0
5 *359:31 *907:B2 0
6 *359:31 *908:A1 0
7 *359:31 *937:A1 0
8 *359:31 *937:C2 0
9 *359:31 *951:A1 0
10 *359:31 *951:B2 0
11 *908:C1 *359:31 0
12 *929:B1 *359:31 0
13 *929:C1 *359:31 0
14 *931:B *359:31 0
15 *931:C *359:31 0
16 *932:A3 *359:31 0
17 *938:C *359:31 0
18 *951:C1 *359:31 0
19 *1046:A *1046:D 0
20 *1046:C *1046:D 0
21 *224:51 *359:31 0
22 *227:49 *359:31 0
23 *227:58 *359:31 0
24 *233:29 *359:31 0
*RES
1 *1045:X *359:31 49.5857 
2 *359:31 *1046:D 16.2821 
*END

*D_NET *360 0.0610742
*CONN
*I *1218:A1 I *D sky130_fd_sc_hd__o21ai_0
*I *1227:A1 I *D sky130_fd_sc_hd__o21ai_0
*I *1125:A1 I *D sky130_fd_sc_hd__o21ai_0
*I *1233:A1 I *D sky130_fd_sc_hd__o21ai_0
*I *1236:A1 I *D sky130_fd_sc_hd__o21ai_0
*I *1248:A1 I *D sky130_fd_sc_hd__o21ai_0
*I *1320:A1 I *D sky130_fd_sc_hd__o21ai_0
*I *1314:A1 I *D sky130_fd_sc_hd__o21ai_0
*I *1326:A1 I *D sky130_fd_sc_hd__o21ai_0
*I *1308:A1 I *D sky130_fd_sc_hd__o21ai_0
*I *1302:A1 I *D sky130_fd_sc_hd__o21ai_0
*I *1332:A1 I *D sky130_fd_sc_hd__o21ai_0
*I *1369:A2 I *D sky130_fd_sc_hd__a21o_1
*I *1296:A1 I *D sky130_fd_sc_hd__o21ai_0
*I *1254:A1 I *D sky130_fd_sc_hd__o21ai_0
*I *1284:A1 I *D sky130_fd_sc_hd__o21ai_0
*I *1278:A1 I *D sky130_fd_sc_hd__o21ai_0
*I *1191:A1 I *D sky130_fd_sc_hd__o21ai_0
*I *1188:A1 I *D sky130_fd_sc_hd__o21ai_0
*I *1260:A1 I *D sky130_fd_sc_hd__o21ai_0
*I *1290:A1 I *D sky130_fd_sc_hd__o21ai_0
*I *1185:A1 I *D sky130_fd_sc_hd__o21ai_0
*I *1266:A1 I *D sky130_fd_sc_hd__o21ai_0
*I *1272:A1 I *D sky130_fd_sc_hd__o21ai_0
*I *1179:A1 I *D sky130_fd_sc_hd__o21ai_0
*I *1170:A1 I *D sky130_fd_sc_hd__o21ai_0
*I *1167:A1 I *D sky130_fd_sc_hd__o21ai_0
*I *1164:A1 I *D sky130_fd_sc_hd__o21ai_0
*I *1242:A1 I *D sky130_fd_sc_hd__o21ai_0
*I *1128:A1 I *D sky130_fd_sc_hd__o21ai_0
*I *1215:A1 I *D sky130_fd_sc_hd__o21ai_0
*I *1119:A1 I *D sky130_fd_sc_hd__o21ai_0
*I *1212:A1 I *D sky130_fd_sc_hd__o21ai_0
*I *1050:A3 I *D sky130_fd_sc_hd__o31ai_1
*I *1053:A1 I *D sky130_fd_sc_hd__o21ai_0
*I *1056:A1 I *D sky130_fd_sc_hd__o21ai_0
*I *1059:A1 I *D sky130_fd_sc_hd__o21ai_0
*I *1143:A1 I *D sky130_fd_sc_hd__o21ai_0
*I *1116:A1 I *D sky130_fd_sc_hd__o21ai_0
*I *1074:A1 I *D sky130_fd_sc_hd__o21ai_0
*I *1113:A1 I *D sky130_fd_sc_hd__o21ai_0
*I *1110:A1 I *D sky130_fd_sc_hd__o21ai_0
*I *1098:A1 I *D sky130_fd_sc_hd__o21ai_0
*I *1107:A1 I *D sky130_fd_sc_hd__o21ai_0
*I *1068:A1 I *D sky130_fd_sc_hd__o21ai_0
*I *1071:A1 I *D sky130_fd_sc_hd__o21ai_0
*I *1155:A1 I *D sky130_fd_sc_hd__o21ai_0
*I *1089:A1 I *D sky130_fd_sc_hd__o21ai_0
*I *1080:A1 I *D sky130_fd_sc_hd__o21ai_0
*I *1077:A1 I *D sky130_fd_sc_hd__o21ai_0
*I *1086:A1 I *D sky130_fd_sc_hd__o21ai_0
*I *1083:A1 I *D sky130_fd_sc_hd__o21ai_0
*I *1104:A1 I *D sky130_fd_sc_hd__o21ai_0
*I *1203:A1 I *D sky130_fd_sc_hd__o21ai_0
*I *1101:A1 I *D sky130_fd_sc_hd__o21ai_0
*I *1095:A1 I *D sky130_fd_sc_hd__o21ai_0
*I *1092:A1 I *D sky130_fd_sc_hd__o21ai_0
*I *1062:A1 I *D sky130_fd_sc_hd__o21ai_0
*I *1065:A1 I *D sky130_fd_sc_hd__o21ai_0
*I *1047:C I *D sky130_fd_sc_hd__nor3_1
*I *1046:Y O *D sky130_fd_sc_hd__nor4_1
*CAP
1 *1218:A1 0.00014075
2 *1227:A1 8.32096e-05
3 *1125:A1 0
4 *1233:A1 0.000144601
5 *1236:A1 3.6141e-05
6 *1248:A1 3.61606e-05
7 *1320:A1 0.000443196
8 *1314:A1 0
9 *1326:A1 0.000323656
10 *1308:A1 8.56922e-05
11 *1302:A1 0
12 *1332:A1 0
13 *1369:A2 0.000465133
14 *1296:A1 0.00018396
15 *1254:A1 0.000360219
16 *1284:A1 4.96263e-05
17 *1278:A1 0
18 *1191:A1 0.000105108
19 *1188:A1 0.000234921
20 *1260:A1 0.000155049
21 *1290:A1 0.000360219
22 *1185:A1 0
23 *1266:A1 0.000867177
24 *1272:A1 0.000368608
25 *1179:A1 0.000121892
26 *1170:A1 0
27 *1167:A1 9.2417e-05
28 *1164:A1 0.000755504
29 *1242:A1 0.000464522
30 *1128:A1 2.56688e-05
31 *1215:A1 0.000277571
32 *1119:A1 1.54013e-05
33 *1212:A1 0
34 *1050:A3 0
35 *1053:A1 0
36 *1056:A1 0
37 *1059:A1 7.76696e-06
38 *1143:A1 0.000505379
39 *1116:A1 3.33694e-05
40 *1074:A1 0
41 *1113:A1 8.32096e-05
42 *1110:A1 0.000255103
43 *1098:A1 0
44 *1107:A1 2.56688e-05
45 *1068:A1 8.17123e-05
46 *1071:A1 0
47 *1155:A1 0.000807242
48 *1089:A1 9.90632e-05
49 *1080:A1 0
50 *1077:A1 0.000263383
51 *1086:A1 0.000455621
52 *1083:A1 9.91025e-05
53 *1104:A1 5.77068e-05
54 *1203:A1 0.000230059
55 *1101:A1 0.000203489
56 *1095:A1 0
57 *1092:A1 9.52027e-05
58 *1062:A1 0
59 *1065:A1 0.000354616
60 *1047:C 0.000406105
61 *1046:Y 0.000222463
62 *360:668 0.000237018
63 *360:602 0.00092899
64 *360:558 0.000150456
65 *360:528 0.00073465
66 *360:511 0.000867177
67 *360:509 0.000846304
68 *360:492 0.0013758
69 *360:487 0.00153503
70 *360:480 0.000139215
71 *360:472 0.000829075
72 *360:466 0.00132583
73 *360:452 0.00161942
74 *360:446 0.00103952
75 *360:441 0.000852543
76 *360:436 0.00098494
77 *360:434 0.00124112
78 *360:429 0.00119969
79 *360:428 0.000664664
80 *360:421 0.000800786
81 *360:417 0.000990137
82 *360:413 0.000656545
83 *360:406 0.00139924
84 *360:399 0.00143373
85 *360:394 0.000835829
86 *360:391 0.000998241
87 *360:364 0.00159766
88 *360:358 0.00104413
89 *360:353 0.00104097
90 *360:337 0.00112849
91 *360:325 0.000764806
92 *360:283 0.000714349
93 *360:275 0.000720568
94 *360:269 0.000735838
95 *360:203 0.00102385
96 *360:200 0.000599502
97 *360:190 0.00114895
98 *360:169 0.000283918
99 *360:167 0.00128689
100 *360:150 0.00110567
101 *360:132 0.000898192
102 *360:130 0.00094641
103 *360:128 0.000354831
104 *360:110 0.000734729
105 *360:106 0.000632733
106 *360:102 0.000313973
107 *360:96 0.00128588
108 *360:82 0.00133456
109 *360:79 0.000689143
110 *360:62 0.000688991
111 *360:57 0.000782732
112 *360:53 0.00053605
113 *360:34 0.000437575
114 *360:32 0.00055843
115 *360:28 0.000620459
116 *360:24 0.000542862
117 *360:22 0.000513367
118 *360:21 0.000774629
119 *360:5 0.00106451
120 *1047:C *915:A1 0
121 *1047:C *620:41 0
122 *1065:A1 *649:13 0
123 *1065:A1 *694:25 0
124 *1065:A1 *774:20 0
125 *1077:A1 *1077:A2 0
126 *1077:A1 *1080:A2 0
127 *1077:A1 *630:26 0
128 *1077:A1 *772:18 0
129 *1086:A1 *1085:A 0
130 *1086:A1 *1086:A2 0
131 *1086:A1 *1158:A 0
132 *1086:A1 *1158:B 0
133 *1089:A1 *603:290 0
134 *1089:A1 *626:12 0
135 *1092:A1 *1092:A2 0
136 *1092:A1 *1092:B1 0
137 *1101:A1 *696:30 0
138 *1101:A1 *766:20 0
139 *1104:A1 *1161:B 0
140 *1110:A1 *1110:A2 0
141 *1110:A1 *633:22 0
142 *1116:A1 *1116:A2 0
143 *1143:A1 *1141:A 0
144 *1155:A1 *1087:A 0
145 *1155:A1 *1400:CLK 0
146 *1155:A1 *1400:RESET_B 0
147 *1164:A1 *1164:B1 0
148 *1164:A1 *1194:A 0
149 *1164:A1 *1196:A 0
150 *1164:A1 *1197:A 0
151 *1164:A1 *1442:RESET_B 0
152 *1164:A1 *1443:CLK 0
153 *1164:A1 *1469:CLK 0
154 *1164:A1 *1512:D 0
155 *1164:A1 *603:149 0
156 *1164:A1 *612:18 0
157 *1164:A1 *698:8 0
158 *1164:A1 *702:8 0
159 *1164:A1 *721:59 0
160 *1164:A1 *767:26 0
161 *1167:A1 *1432:RESET_B 0
162 *1167:A1 *764:8 0
163 *1179:A1 *1179:A2 0
164 *1179:A1 *1468:CLK 0
165 *1188:A1 *1188:A2 0
166 *1188:A1 *603:833 0
167 *1188:A1 *685:18 0
168 *1203:A1 *696:30 0
169 *1203:A1 *698:36 0
170 *1215:A1 *1213:A 0
171 *1215:A1 *603:504 0
172 *1215:A1 *619:18 0
173 *1227:A1 *1227:A2 0
174 *1233:A1 *1125:A2 0
175 *1233:A1 *1233:A2 0
176 *1233:A1 *1418:CLK 0
177 *1233:A1 *778:17 0
178 *1242:A1 *1242:A2 0
179 *1242:A1 *1453:CLK 0
180 *1242:A1 *603:745 0
181 *1242:A1 *603:756 0
182 *1242:A1 *674:14 0
183 *1242:A1 *779:67 0
184 *1248:A1 *1250:A 0
185 *1254:A1 *1254:B1 0
186 *1254:A1 *680:7 0
187 *1260:A1 *1261:A 0
188 *1260:A1 *1511:RESET_B 0
189 *1260:A1 *592:189 0
190 *1260:A1 *768:12 0
191 *1260:A1 *768:18 0
192 *1266:A1 *1265:A 0
193 *1266:A1 *1266:A2 0
194 *1272:A1 *1178:A 0
195 *1272:A1 *1179:A2 0
196 *1272:A1 *1180:A 0
197 *1272:A1 *1272:B1 0
198 *1272:A1 *1467:CLK 0
199 *1272:A1 *579:12 0
200 *1284:A1 *1281:B 0
201 *1284:A1 *660:7 0
202 *1296:A1 *1296:B1 0
203 *1308:A1 *1321:A 0
204 *1320:A1 *1320:A2 0
205 *1320:A1 *673:8 0
206 *1320:A1 *776:57 0
207 *1326:A1 *1321:A 0
208 *1326:A1 *1326:B1 0
209 *1326:A1 *603:74 0
210 *1369:A2 *1330:A 0
211 *1369:A2 *1332:A2 0
212 *1369:A2 *1369:B1 0
213 *1369:A2 *603:10 0
214 *1369:A2 *603:14 0
215 *1369:A2 *701:6 0
216 *360:5 *1207:A 0
217 *360:21 *1207:A 0
218 *360:22 *636:17 0
219 *360:24 *1049:A 0
220 *360:24 *603:434 0
221 *360:24 *647:35 0
222 *360:24 *774:6 0
223 *360:28 *603:434 0
224 *360:28 *647:35 0
225 *360:32 *1061:A 0
226 *360:32 *1062:A2 0
227 *360:32 *1415:RESET_B 0
228 *360:32 *647:35 0
229 *360:32 *774:10 0
230 *360:32 *774:17 0
231 *360:34 *1062:A2 0
232 *360:34 *694:25 0
233 *360:34 *774:17 0
234 *360:34 *774:20 0
235 *360:53 *1415:CLK 0
236 *360:57 *1116:A2 0
237 *360:57 *1407:RESET_B 0
238 *360:62 *1092:B1 0
239 *360:62 *1407:CLK 0
240 *360:62 *1407:RESET_B 0
241 *360:62 *627:8 0
242 *360:62 *627:20 0
243 *360:62 *692:23 0
244 *360:79 *915:C2 0
245 *360:79 *1092:B1 0
246 *360:79 *626:32 0
247 *360:79 *692:23 0
248 *360:82 *1095:B1 0
249 *360:82 *1113:A2 0
250 *360:96 *1108:A 0
251 *360:102 *1096:A 0
252 *360:102 *1098:A2 0
253 *360:102 *1100:A 0
254 *360:102 *633:22 0
255 *360:106 *1098:A2 0
256 *360:106 *1100:A 0
257 *360:106 *1105:A 0
258 *360:106 *1107:B1 0
259 *360:110 *1101:A2 0
260 *360:128 *633:8 0
261 *360:130 *1103:A 0
262 *360:132 *1103:A 0
263 *360:132 *1104:A2 0
264 *360:132 *632:17 0
265 *360:150 *1104:A2 0
266 *360:150 *1160:A 0
267 *360:150 *1430:CLK 0
268 *360:150 *1430:RESET_B 0
269 *360:150 *697:17 0
270 *360:167 *630:7 0
271 *360:167 *630:13 0
272 *360:167 *630:26 0
273 *360:190 *1078:A 0
274 *360:190 *1080:B1 0
275 *360:190 *626:12 0
276 *360:203 *1071:B1 0
277 *360:203 *1087:A 0
278 *360:203 *1400:CLK 0
279 *360:203 *773:18 0
280 *360:269 *1053:A2 0
281 *360:275 *1053:A2 0
282 *360:275 *1053:B1 0
283 *360:275 *1056:A2 0
284 *360:283 *646:23 0
285 *360:283 *647:21 0
286 *360:283 *684:25 0
287 *360:283 *774:90 0
288 *360:325 *636:17 0
289 *360:325 *765:135 0
290 *360:337 *637:8 0
291 *360:358 *1219:A 0
292 *360:358 *1449:CLK 0
293 *360:358 *603:655 0
294 *360:358 *603:657 0
295 *360:358 *603:659 0
296 *360:358 *605:23 0
297 *360:358 *606:8 0
298 *360:364 *1128:A2 0
299 *360:364 *1226:A 0
300 *360:364 *1419:CLK 0
301 *360:364 *603:644 0
302 *360:364 *603:655 0
303 *360:364 *603:745 0
304 *360:391 *603:638 0
305 *360:391 *609:21 0
306 *360:391 *639:11 0
307 *360:394 *1236:A2 0
308 *360:394 *603:616 0
309 *360:394 *610:48 0
310 *360:399 *917:A1 0
311 *360:399 *920:B2 0
312 *360:399 *609:21 0
313 *360:399 *677:11 0
314 *360:406 *917:A1 0
315 *360:406 *920:B2 0
316 *360:406 *1250:A 0
317 *360:406 *673:8 0
318 *360:406 *678:12 0
319 *360:421 *1321:A 0
320 *360:421 *603:74 0
321 *360:428 *1302:A2 0
322 *360:428 *1305:B 0
323 *360:434 *1370:A 0
324 *360:434 *1832:A 0
325 *360:434 *771:8 0
326 *360:436 *1832:A 0
327 *360:436 *765:48 0
328 *360:436 *765:72 0
329 *360:441 *660:27 0
330 *360:441 *765:48 0
331 *360:446 *1286:A 0
332 *360:446 *1287:B 0
333 *360:446 *660:7 0
334 *360:446 *660:27 0
335 *360:452 *1192:A 0
336 *360:452 *1278:A2 0
337 *360:452 *1469:CLK 0
338 *360:452 *603:143 0
339 *360:452 *603:149 0
340 *360:466 *685:33 0
341 *360:466 *699:25 0
342 *360:472 *685:18 0
343 *360:472 *699:25 0
344 *360:472 *767:10 0
345 *360:480 *1170:B1 0
346 *360:480 *603:842 0
347 *360:480 *764:8 0
348 *360:487 *1170:B1 0
349 *360:487 *603:842 0
350 *360:487 *764:8 0
351 *360:492 *1178:A 0
352 *360:492 *1180:A 0
353 *360:492 *687:12 0
354 *360:509 *1172:A 0
355 *360:509 *1173:B 0
356 *360:509 *1174:A 0
357 *360:509 *764:8 0
358 *360:528 *1185:B1 0
359 *360:528 *1511:RESET_B 0
360 *360:528 *768:18 0
361 *360:558 *1191:A2 0
362 *360:558 *604:22 0
363 *360:602 *1328:A 0
364 *360:602 *1329:B 0
365 *360:602 *1486:CLK 0
366 *360:668 *610:14 0
367 *360:668 *610:48 0
368 *360:668 *778:20 0
369 *1051:B *360:275 0
370 *1079:B *1077:A1 0
371 *1081:B *1083:A1 0
372 *1085:B *1086:A1 0
373 *1096:B *360:106 0
374 *1100:B *360:110 0
375 *1105:B *360:102 0
376 *1105:B *360:106 0
377 *1108:B *360:96 0
378 *1112:B *360:79 0
379 *1162:B *1164:A1 0
380 *1178:B *1272:A1 0
381 *1207:B *360:21 0
382 *1208:B *360:21 0
383 *1217:B *1218:A1 0
384 *1241:B *1242:A1 0
385 *1243:B *1242:A1 0
386 *1252:B *1254:A1 0
387 *1265:B *1266:A1 0
388 *1274:B *1179:A1 0
389 *1304:B *360:428 0
390 *1312:B *360:413 0
391 *1312:B *360:417 0
392 *1331:B *1369:A2 0
393 *1394:D *360:275 0
394 *1396:D *1143:A1 0
395 *1400:D *1155:A1 0
396 *1403:D *360:167 0
397 *1403:D *360:190 0
398 *1404:D *1083:A1 0
399 *1405:D *1086:A1 0
400 *1407:D *360:62 0
401 *1410:D *1101:A1 0
402 *1412:D *1107:A1 0
403 *1415:D *360:53 0
404 *1416:D *360:337 0
405 *1419:D *360:364 0
406 *1424:D *1143:A1 0
407 *1428:D *1155:A1 0
408 *1430:D *360:150 0
409 *1433:D *360:480 0
410 *1434:D *360:509 0
411 *1438:D *360:528 0
412 *1449:D *1218:A1 0
413 *1449:D *360:358 0
414 *1452:D *360:358 0
415 *1452:D *360:364 0
416 *1453:D *1242:A1 0
417 *1457:D *1242:A1 0
418 *1465:D *1266:A1 0
419 *1469:D *360:452 0
420 *1471:D *360:441 0
421 *1473:D *1290:A1 0
422 *1475:D *1296:A1 0
423 *1478:D *360:428 0
424 *1485:D *1326:A1 0
425 *181:6 *1164:A1 0
426 *219:20 *1326:A1 0
427 *242:20 *1320:A1 0
428 *242:20 *360:406 0
429 *278:11 *1308:A1 0
430 *315:10 *360:602 0
431 *315:12 *360:602 0
432 *315:14 *360:602 0
433 *315:124 *360:446 0
434 *315:126 *360:446 0
435 *315:128 *360:446 0
436 *315:132 *360:452 0
437 *315:199 *1164:A1 0
438 *315:224 *360:509 0
439 *315:274 *360:509 0
440 *315:285 *360:509 0
441 *315:288 *1266:A1 0
442 *315:292 *1266:A1 0
443 *315:299 *1266:A1 0
444 *315:434 *1110:A1 0
445 *315:434 *360:102 0
446 *315:449 *360:130 0
447 *315:469 *1077:A1 0
448 *315:481 *1077:A1 0
449 *315:747 *360:394 0
450 *315:747 *360:668 0
451 *315:867 *360:364 0
452 *315:873 *360:358 0
453 *315:942 *1143:A1 0
454 *316:11 *1369:A2 0
455 *316:20 *360:428 0
456 *316:23 *360:428 0
457 *316:23 *360:429 0
458 *316:23 *360:434 0
459 *316:34 *1254:A1 0
460 *316:34 *360:436 0
461 *316:34 *360:441 0
462 *316:65 *360:446 0
463 *316:78 *1188:A1 0
464 *316:78 *360:472 0
465 *316:84 *360:472 0
466 *316:110 *1164:A1 0
467 *316:132 *1203:A1 0
468 *316:136 *360:96 0
469 *316:144 *360:96 0
470 *316:148 *1113:A1 0
471 *316:148 *360:82 0
472 *316:148 *360:96 0
473 *316:164 *360:57 0
474 *316:174 *360:53 0
475 *316:174 *360:57 0
476 *316:210 *360:269 0
477 *316:210 *360:275 0
478 *316:235 *1065:A1 0
479 *316:253 *360:275 0
480 *316:372 *360:128 0
481 *316:372 *360:130 0
482 *316:380 *360:130 0
483 *316:380 *360:132 0
484 *316:393 *1104:A1 0
485 *316:400 *1083:A1 0
486 *316:414 *1086:A1 0
487 *316:425 *1155:A1 0
488 *316:476 *360:167 0
489 *316:476 *360:190 0
490 *316:487 *360:190 0
491 *316:508 *360:106 0
492 *316:579 *360:509 0
493 *316:634 *1179:A1 0
494 *316:634 *1272:A1 0
495 *316:851 *360:428 0
496 *316:945 *360:394 0
497 *316:963 *360:325 0
498 *316:965 *360:325 0
499 *316:970 *360:22 0
500 *316:970 *360:24 0
501 *316:970 *360:325 0
502 *316:995 *360:337 0
*RES
1 *1046:Y *360:5 13.9429 
2 *360:5 *1047:C 27.4071 
3 *360:5 *360:21 13.6607 
4 *360:21 *360:22 1.94643 
5 *360:22 *360:24 9.83929 
6 *360:24 *360:28 7.05357 
7 *360:28 *360:32 11.0357 
8 *360:32 *360:34 1.94643 
9 *360:34 *1065:A1 21.4071 
10 *360:34 *1062:A1 13.8 
11 *360:32 *360:53 8.33929 
12 *360:53 *360:57 6.71429 
13 *360:57 *360:62 14.375 
14 *360:62 *1092:A1 25.0143 
15 *360:62 *360:79 7.66071 
16 *360:79 *360:82 10 
17 *360:82 *1095:A1 9.3 
18 *360:82 *360:96 22.4464 
19 *360:96 *360:102 8.42857 
20 *360:102 *360:106 3.01786 
21 *360:106 *360:110 10.7857 
22 *360:110 *1101:A1 18.2286 
23 *360:110 *1203:A1 19.0857 
24 *360:106 *360:128 8.875 
25 *360:128 *360:130 3.16071 
26 *360:130 *360:132 6.65179 
27 *360:132 *1104:A1 15.0411 
28 *360:132 *360:150 16.3839 
29 *360:150 *1083:A1 20.55 
30 *360:150 *1086:A1 18.8714 
31 *360:130 *360:167 15.3036 
32 *360:167 *360:169 0.428571 
33 *360:169 *1077:A1 23.9786 
34 *360:169 *1080:A1 9.3 
35 *360:167 *360:190 20.4286 
36 *360:190 *1089:A1 16.05 
37 *360:190 *360:200 10.7857 
38 *360:200 *360:203 9.48214 
39 *360:203 *1155:A1 30.8536 
40 *360:203 *1071:A1 13.8 
41 *360:200 *1068:A1 11.0679 
42 *360:128 *1107:A1 14.3357 
43 *360:102 *1098:A1 9.3 
44 *360:96 *1110:A1 19.425 
45 *360:79 *1113:A1 11.0679 
46 *360:57 *1074:A1 9.3 
47 *360:53 *1116:A1 10.2643 
48 *360:28 *360:269 4.64286 
49 *360:269 *360:275 10.8393 
50 *360:275 *360:283 12.2924 
51 *360:283 *1143:A1 24.7554 
52 *360:283 *1059:A1 14.0768 
53 *360:275 *1056:A1 9.3 
54 *360:269 *1053:A1 9.3 
55 *360:24 *1050:A3 13.8 
56 *360:22 *1212:A1 13.8 
57 *360:21 *360:325 10.3214 
58 *360:325 *1119:A1 9.72857 
59 *360:325 *360:337 10.5357 
60 *360:337 *1215:A1 24.5857 
61 *360:337 *360:353 7.51786 
62 *360:353 *360:358 21.2679 
63 *360:358 *360:364 13.8036 
64 *360:364 *1128:A1 14.3357 
65 *360:364 *1242:A1 24.05 
66 *360:364 *360:391 9.31727 
67 *360:391 *360:394 4.91071 
68 *360:394 *360:399 8.95693 
69 *360:399 *360:406 12.1476 
70 *360:406 *360:413 7.53571 
71 *360:413 *360:417 15.3036 
72 *360:417 *360:421 7.82143 
73 *360:421 *360:428 20.8393 
74 *360:428 *360:429 2.17857 
75 *360:429 *360:434 18.0536 
76 *360:434 *360:436 9.53571 
77 *360:436 *360:441 9.10714 
78 *360:441 *360:446 17.9464 
79 *360:446 *360:452 9.13393 
80 *360:452 *1164:A1 30.8089 
81 *360:452 *360:466 8.52453 
82 *360:466 *360:472 12.7554 
83 *360:472 *1167:A1 15.8982 
84 *360:472 *360:480 2.70536 
85 *360:480 *1170:A1 13.8 
86 *360:480 *360:487 0.580357 
87 *360:487 *360:492 10.0379 
88 *360:492 *1179:A1 16.5054 
89 *360:492 *1272:A1 22.1125 
90 *360:487 *360:509 14.2411 
91 *360:509 *360:511 4.5 
92 *360:511 *1266:A1 27.55 
93 *360:511 *1185:A1 9.3 
94 *360:509 *360:528 4.98214 
95 *360:528 *1290:A1 21.3179 
96 *360:528 *1260:A1 17.3 
97 *360:466 *1188:A1 19.0054 
98 *360:446 *360:558 5.44643 
99 *360:558 *1191:A1 20.7464 
100 *360:558 *1278:A1 9.3 
101 *360:441 *1284:A1 10.3357 
102 *360:436 *1254:A1 21.3179 
103 *360:434 *1296:A1 17.6393 
104 *360:429 *360:602 19.4821 
105 *360:602 *1369:A2 28.7107 
106 *360:602 *1332:A1 9.3 
107 *360:428 *1302:A1 9.3 
108 *360:421 *1308:A1 20.2464 
109 *360:417 *1326:A1 21.2107 
110 *360:413 *1314:A1 9.3 
111 *360:406 *1320:A1 23.6036 
112 *360:399 *1248:A1 14.6839 
113 *360:394 *1236:A1 14.6839 
114 *360:391 *360:668 6.59821 
115 *360:668 *1233:A1 12.3179 
116 *360:668 *1125:A1 9.3 
117 *360:358 *1227:A1 11.0679 
118 *360:353 *1218:A1 12.3 
*END

*D_NET *361 0.000210484
*CONN
*I *1048:B1 I *D sky130_fd_sc_hd__a21oi_1
*I *1047:Y O *D sky130_fd_sc_hd__nor3_1
*CAP
1 *1048:B1 0.000105242
2 *1047:Y 0.000105242
3 *1048:B1 *1047:A 0
4 *1047:B *1048:B1 0
5 *142:7 *1048:B1 0
*RES
1 *1047:Y *1048:B1 20.7964 
*END

*D_NET *362 0.000210484
*CONN
*I *1050:B1 I *D sky130_fd_sc_hd__o31ai_1
*I *1049:Y O *D sky130_fd_sc_hd__nand2_1
*CAP
1 *1050:B1 0.000105242
2 *1049:Y 0.000105242
3 *1050:B1 *774:79 0
4 *1049:B *1050:B1 0
*RES
1 *1049:Y *1050:B1 20.7964 
*END

*D_NET *363 9.06964e-05
*CONN
*I *1053:B1 I *D sky130_fd_sc_hd__o21ai_0
*I *1051:Y O *D sky130_fd_sc_hd__nand2_1
*CAP
1 *1053:B1 4.53482e-05
2 *1051:Y 4.53482e-05
3 *1051:B *1053:B1 0
4 *316:253 *1053:B1 0
5 *360:275 *1053:B1 0
*RES
1 *1051:Y *1053:B1 19.5464 
*END

*D_NET *364 0.000728797
*CONN
*I *1053:A2 I *D sky130_fd_sc_hd__o21ai_0
*I *1052:Y O *D sky130_fd_sc_hd__nand2_1
*CAP
1 *1053:A2 0.000364399
2 *1052:Y 0.000364399
3 *1053:A2 *1049:A 0
4 *1053:A2 *1051:A 0
5 *1053:A2 *603:434 0
6 *1053:A2 *603:477 0
7 *1053:A2 *603:486 0
8 *1053:A2 *645:18 0
9 *1053:A2 *774:85 0
10 *1051:B *1053:A2 0
11 *1394:D *1053:A2 0
12 *315:672 *1053:A2 0
13 *315:680 *1053:A2 0
14 *316:210 *1053:A2 0
15 *360:269 *1053:A2 0
16 *360:275 *1053:A2 0
*RES
1 *1052:Y *1053:A2 35.7071 
*END

*D_NET *365 0.000169414
*CONN
*I *1056:B1 I *D sky130_fd_sc_hd__o21ai_0
*I *1054:Y O *D sky130_fd_sc_hd__nand2_1
*CAP
1 *1056:B1 8.4707e-05
2 *1054:Y 8.4707e-05
3 *1396:D *1056:B1 0
4 *316:253 *1056:B1 0
5 *316:265 *1056:B1 0
*RES
1 *1054:Y *1056:B1 20.3679 
*END

*D_NET *366 0.000314135
*CONN
*I *1056:A2 I *D sky130_fd_sc_hd__o21ai_0
*I *1055:Y O *D sky130_fd_sc_hd__nand2_1
*CAP
1 *1056:A2 0.000157068
2 *1055:Y 0.000157068
3 *1056:A2 *774:90 0
4 *315:656 *1056:A2 0
5 *316:253 *1056:A2 0
6 *360:275 *1056:A2 0
*RES
1 *1055:Y *1056:A2 31.0107 
*END

*D_NET *367 0.000510929
*CONN
*I *1059:B1 I *D sky130_fd_sc_hd__o21ai_0
*I *1057:Y O *D sky130_fd_sc_hd__nand2_1
*CAP
1 *1059:B1 0.000255465
2 *1057:Y 0.000255465
3 *1059:B1 *1059:A2 0
4 *1059:B1 *1143:A2 0
5 *1058:B *1059:B1 0
6 *1142:B *1059:B1 0
7 *316:265 *1059:B1 0
8 *316:268 *1059:B1 0
*RES
1 *1057:Y *1059:B1 33.0643 
*END

*D_NET *368 0.000210484
*CONN
*I *1059:A2 I *D sky130_fd_sc_hd__o21ai_0
*I *1058:Y O *D sky130_fd_sc_hd__nand2_1
*CAP
1 *1059:A2 0.000105242
2 *1058:Y 0.000105242
3 *1058:B *1059:A2 0
4 *1059:B1 *1059:A2 0
5 *1396:D *1059:A2 0
6 *316:265 *1059:A2 0
*RES
1 *1058:Y *1059:A2 20.7964 
*END

*D_NET *369 0.000284923
*CONN
*I *1062:B1 I *D sky130_fd_sc_hd__o21ai_0
*I *1060:Y O *D sky130_fd_sc_hd__nand2_1
*CAP
1 *1062:B1 0.000142462
2 *1060:Y 0.000142462
3 *1062:B1 *1060:A 0
4 *1062:B1 *774:17 0
5 *1397:D *1062:B1 0
*RES
1 *1060:Y *1062:B1 21.6357 
*END

*D_NET *370 0.000364084
*CONN
*I *1062:A2 I *D sky130_fd_sc_hd__o21ai_0
*I *1061:Y O *D sky130_fd_sc_hd__nand2_1
*CAP
1 *1062:A2 0.000182042
2 *1061:Y 0.000182042
3 *1062:A2 *1415:RESET_B 0
4 *360:32 *1062:A2 0
5 *360:34 *1062:A2 0
*RES
1 *1061:Y *1062:A2 31.6714 
*END

*D_NET *371 9.06964e-05
*CONN
*I *1065:B1 I *D sky130_fd_sc_hd__o21ai_0
*I *1063:Y O *D sky130_fd_sc_hd__nand2_1
*CAP
1 *1065:B1 4.53482e-05
2 *1063:Y 4.53482e-05
3 *1065:B1 *649:13 0
4 *316:235 *1065:B1 0
*RES
1 *1063:Y *1065:B1 19.5464 
*END

*D_NET *372 0.000515375
*CONN
*I *1065:A2 I *D sky130_fd_sc_hd__o21ai_0
*I *1064:Y O *D sky130_fd_sc_hd__nand2_1
*CAP
1 *1065:A2 0.000257688
2 *1064:Y 0.000257688
3 *1065:A2 *636:8 0
4 *1065:A2 *774:20 0
5 *316:225 *1065:A2 0
*RES
1 *1064:Y *1065:A2 33.3321 
*END

*D_NET *373 9.06964e-05
*CONN
*I *1068:B1 I *D sky130_fd_sc_hd__o21ai_0
*I *1066:Y O *D sky130_fd_sc_hd__nand2_1
*CAP
1 *1068:B1 4.53482e-05
2 *1066:Y 4.53482e-05
3 *1068:B1 *1068:A2 0
*RES
1 *1066:Y *1068:B1 19.5464 
*END

*D_NET *374 0.00049951
*CONN
*I *1068:A2 I *D sky130_fd_sc_hd__o21ai_0
*I *1067:Y O *D sky130_fd_sc_hd__nand2_1
*CAP
1 *1068:A2 0.000249755
2 *1067:Y 0.000249755
3 *1068:A2 *1066:A 0
4 *1068:A2 *651:21 0
5 *1068:B1 *1068:A2 0
6 *315:573 *1068:A2 0
7 *315:584 *1068:A2 0
*RES
1 *1067:Y *1068:A2 33.0464 
*END

*D_NET *375 0.000458953
*CONN
*I *1071:B1 I *D sky130_fd_sc_hd__o21ai_0
*I *1069:Y O *D sky130_fd_sc_hd__nand2_1
*CAP
1 *1071:B1 0.000229477
2 *1069:Y 0.000229477
3 *1071:B1 *1400:CLK 0
4 *1071:B1 *1406:RESET_B 0
5 *1071:B1 *651:21 0
6 *1071:B1 *773:18 0
7 *1069:B *1071:B1 0
8 *316:437 *1071:B1 0
9 *360:203 *1071:B1 0
*RES
1 *1069:Y *1071:B1 32.5464 
*END

*D_NET *376 0.000645683
*CONN
*I *1071:A2 I *D sky130_fd_sc_hd__o21ai_0
*I *1070:Y O *D sky130_fd_sc_hd__nand2_1
*CAP
1 *1071:A2 0.000322841
2 *1070:Y 0.000322841
3 *1071:A2 *603:336 0
4 *1071:A2 *650:8 0
5 *1399:D *1071:A2 0
*RES
1 *1070:Y *1071:A2 34.4214 
*END

*D_NET *377 9.06964e-05
*CONN
*I *1074:B1 I *D sky130_fd_sc_hd__o21ai_0
*I *1072:Y O *D sky130_fd_sc_hd__nand2_1
*CAP
1 *1074:B1 4.53482e-05
2 *1072:Y 4.53482e-05
*RES
1 *1072:Y *1074:B1 19.5464 
*END

*D_NET *378 0.000747082
*CONN
*I *1074:A2 I *D sky130_fd_sc_hd__o21ai_0
*I *1073:Y O *D sky130_fd_sc_hd__nand2_1
*CAP
1 *1074:A2 0.000373541
2 *1073:Y 0.000373541
3 *1074:A2 *649:23 0
4 *1074:A2 *651:21 0
5 *315:591 *1074:A2 0
6 *315:633 *1074:A2 0
7 *316:164 *1074:A2 0
*RES
1 *1073:Y *1074:A2 35.5286 
*END

*D_NET *379 0.000358657
*CONN
*I *1077:B1 I *D sky130_fd_sc_hd__o21ai_0
*I *1075:Y O *D sky130_fd_sc_hd__nand2_1
*CAP
1 *1077:B1 0.000179328
2 *1075:Y 0.000179328
3 *1077:B1 *1020:A 0
4 *1077:B1 *603:273 0
5 *1077:B1 *623:40 0
6 *1077:B1 *695:23 0
*RES
1 *1075:Y *1077:B1 31.6714 
*END

*D_NET *380 0.000210484
*CONN
*I *1077:A2 I *D sky130_fd_sc_hd__o21ai_0
*I *1076:Y O *D sky130_fd_sc_hd__nand2_1
*CAP
1 *1077:A2 0.000105242
2 *1076:Y 0.000105242
3 *1077:A1 *1077:A2 0
4 *315:481 *1077:A2 0
*RES
1 *1076:Y *1077:A2 20.7964 
*END

*D_NET *381 0.000130055
*CONN
*I *1080:B1 I *D sky130_fd_sc_hd__o21ai_0
*I *1078:Y O *D sky130_fd_sc_hd__nand2_1
*CAP
1 *1080:B1 6.50276e-05
2 *1078:Y 6.50276e-05
3 *316:476 *1080:B1 0
4 *316:487 *1080:B1 0
5 *360:190 *1080:B1 0
*RES
1 *1078:Y *1080:B1 19.9571 
*END

*D_NET *382 0.000314135
*CONN
*I *1080:A2 I *D sky130_fd_sc_hd__o21ai_0
*I *1079:Y O *D sky130_fd_sc_hd__nand2_1
*CAP
1 *1080:A2 0.000157068
2 *1079:Y 0.000157068
3 *1080:A2 *772:18 0
4 *1077:A1 *1080:A2 0
*RES
1 *1079:Y *1080:A2 31.0107 
*END

*D_NET *383 0.000130055
*CONN
*I *1083:B1 I *D sky130_fd_sc_hd__o21ai_0
*I *1081:Y O *D sky130_fd_sc_hd__nand2_1
*CAP
1 *1083:B1 6.50276e-05
2 *1081:Y 6.50276e-05
3 *1083:B1 *1083:A2 0
*RES
1 *1081:Y *1083:B1 19.9571 
*END

*D_NET *384 0.000373909
*CONN
*I *1083:A2 I *D sky130_fd_sc_hd__o21ai_0
*I *1082:Y O *D sky130_fd_sc_hd__nand2_1
*CAP
1 *1083:A2 0.000186954
2 *1082:Y 0.000186954
3 *1083:A2 *1081:A 0
4 *1083:B1 *1083:A2 0
5 *1404:D *1083:A2 0
*RES
1 *1082:Y *1083:A2 22.5643 
*END

*D_NET *385 0.000130055
*CONN
*I *1086:B1 I *D sky130_fd_sc_hd__o21ai_0
*I *1084:Y O *D sky130_fd_sc_hd__nand2_1
*CAP
1 *1086:B1 6.50276e-05
2 *1084:Y 6.50276e-05
3 *316:414 *1086:B1 0
4 *316:425 *1086:B1 0
*RES
1 *1084:Y *1086:B1 19.9571 
*END

*D_NET *386 0.000171125
*CONN
*I *1086:A2 I *D sky130_fd_sc_hd__o21ai_0
*I *1085:Y O *D sky130_fd_sc_hd__nand2_1
*CAP
1 *1086:A2 8.55626e-05
2 *1085:Y 8.55626e-05
3 *1086:A1 *1086:A2 0
4 *1405:D *1086:A2 0
5 *316:414 *1086:A2 0
*RES
1 *1085:Y *1086:A2 20.3857 
*END

*D_NET *387 0.000471452
*CONN
*I *1089:B1 I *D sky130_fd_sc_hd__o21ai_0
*I *1087:Y O *D sky130_fd_sc_hd__nand2_1
*CAP
1 *1089:B1 0.000235726
2 *1087:Y 0.000235726
3 *1089:B1 *603:290 0
4 *1089:B1 *603:336 0
5 *316:437 *1089:B1 0
*RES
1 *1087:Y *1089:B1 32.6536 
*END

*D_NET *388 0.000171125
*CONN
*I *1089:A2 I *D sky130_fd_sc_hd__o21ai_0
*I *1088:Y O *D sky130_fd_sc_hd__nand2_1
*CAP
1 *1089:A2 8.55626e-05
2 *1088:Y 8.55626e-05
3 *1089:A2 *1088:A 0
4 *1089:A2 *1406:CLK 0
*RES
1 *1088:Y *1089:A2 20.3857 
*END

*D_NET *389 0.000458953
*CONN
*I *1092:B1 I *D sky130_fd_sc_hd__o21ai_0
*I *1090:Y O *D sky130_fd_sc_hd__nand2_1
*CAP
1 *1092:B1 0.000229477
2 *1090:Y 0.000229477
3 *1092:B1 *915:C2 0
4 *1092:B1 *1092:A2 0
5 *1092:B1 *627:20 0
6 *1092:A1 *1092:B1 0
7 *315:607 *1092:B1 0
8 *360:62 *1092:B1 0
9 *360:79 *1092:B1 0
*RES
1 *1090:Y *1092:B1 32.5464 
*END

*D_NET *390 0.000485898
*CONN
*I *1092:A2 I *D sky130_fd_sc_hd__o21ai_0
*I *1091:Y O *D sky130_fd_sc_hd__nand2_1
*CAP
1 *1092:A2 0.000242949
2 *1091:Y 0.000242949
3 *1092:A2 *915:C2 0
4 *1092:A2 *626:32 0
5 *1092:A2 *651:21 0
6 *1073:B *1092:A2 0
7 *1092:A1 *1092:A2 0
8 *1092:B1 *1092:A2 0
*RES
1 *1091:Y *1092:A2 32.7786 
*END

*D_NET *391 0.000461332
*CONN
*I *1095:B1 I *D sky130_fd_sc_hd__o21ai_0
*I *1093:Y O *D sky130_fd_sc_hd__nand2_1
*CAP
1 *1095:B1 0.000230666
2 *1093:Y 0.000230666
3 *1095:B1 *1095:A2 0
4 *1095:B1 *625:21 0
5 *1095:B1 *627:27 0
6 *1095:B1 *628:17 0
7 *1095:B1 *772:11 0
8 *1091:B *1095:B1 0
9 *316:148 *1095:B1 0
10 *360:82 *1095:B1 0
*RES
1 *1093:Y *1095:B1 32.7429 
*END

*D_NET *392 0.000629005
*CONN
*I *1095:A2 I *D sky130_fd_sc_hd__o21ai_0
*I *1094:Y O *D sky130_fd_sc_hd__nand2_1
*CAP
1 *1095:A2 0.000314503
2 *1094:Y 0.000314503
3 *1095:A2 *625:21 0
4 *1095:A2 *772:11 0
5 *1095:B1 *1095:A2 0
6 *315:607 *1095:A2 0
*RES
1 *1094:Y *1095:A2 34.2964 
*END

*D_NET *393 9.06964e-05
*CONN
*I *1098:B1 I *D sky130_fd_sc_hd__o21ai_0
*I *1096:Y O *D sky130_fd_sc_hd__nand2_1
*CAP
1 *1098:B1 4.53482e-05
2 *1096:Y 4.53482e-05
3 *1098:B1 *1098:A2 0
4 *1098:B1 *1100:A 0
*RES
1 *1096:Y *1098:B1 19.5464 
*END

*D_NET *394 0.000531344
*CONN
*I *1098:A2 I *D sky130_fd_sc_hd__o21ai_0
*I *1097:Y O *D sky130_fd_sc_hd__nand2_1
*CAP
1 *1098:A2 0.000265672
2 *1097:Y 0.000265672
3 *1098:A2 *1096:A 0
4 *1098:A2 *1100:A 0
5 *1098:A2 *629:9 0
6 *1098:A2 *629:30 0
7 *1098:B1 *1098:A2 0
8 *360:102 *1098:A2 0
9 *360:106 *1098:A2 0
*RES
1 *1097:Y *1098:A2 24.0821 
*END

*D_NET *395 0.000652137
*CONN
*I *1101:B1 I *D sky130_fd_sc_hd__o21ai_0
*I *1099:Y O *D sky130_fd_sc_hd__nand2_1
*CAP
1 *1101:B1 0.000326068
2 *1099:Y 0.000326068
3 *1101:B1 *1101:A2 0
4 *1101:B1 *1409:CLK 0
5 *1101:B1 *1410:RESET_B 0
6 *1101:B1 *603:191 0
7 *1101:B1 *603:196 0
8 *1101:B1 *630:7 0
*RES
1 *1099:Y *1101:B1 34.6714 
*END

*D_NET *396 0.000458953
*CONN
*I *1101:A2 I *D sky130_fd_sc_hd__o21ai_0
*I *1100:Y O *D sky130_fd_sc_hd__nand2_1
*CAP
1 *1101:A2 0.000229477
2 *1100:Y 0.000229477
3 *1101:A2 *1409:CLK 0
4 *1101:A2 *603:189 0
5 *1101:A2 *696:30 0
6 *1101:B1 *1101:A2 0
7 *360:110 *1101:A2 0
*RES
1 *1100:Y *1101:A2 32.5464 
*END

*D_NET *397 9.06964e-05
*CONN
*I *1104:B1 I *D sky130_fd_sc_hd__o21ai_0
*I *1102:Y O *D sky130_fd_sc_hd__nand2_1
*CAP
1 *1104:B1 4.53482e-05
2 *1102:Y 4.53482e-05
3 *316:393 *1104:B1 0
4 *316:397 *1104:B1 0
*RES
1 *1102:Y *1104:B1 19.5464 
*END

*D_NET *398 0.000358657
*CONN
*I *1104:A2 I *D sky130_fd_sc_hd__o21ai_0
*I *1103:Y O *D sky130_fd_sc_hd__nand2_1
*CAP
1 *1104:A2 0.000179328
2 *1103:Y 0.000179328
3 *1104:A2 *632:17 0
4 *1104:A2 *697:17 0
5 *360:132 *1104:A2 0
6 *360:150 *1104:A2 0
*RES
1 *1103:Y *1104:A2 31.6714 
*END

*D_NET *399 0.0004155
*CONN
*I *1107:B1 I *D sky130_fd_sc_hd__o21ai_0
*I *1105:Y O *D sky130_fd_sc_hd__nand2_1
*CAP
1 *1107:B1 0.00020775
2 *1105:Y 0.00020775
3 *1107:B1 *633:8 0
4 *360:106 *1107:B1 0
*RES
1 *1105:Y *1107:B1 32.2071 
*END

*D_NET *400 0.000210484
*CONN
*I *1107:A2 I *D sky130_fd_sc_hd__o21ai_0
*I *1106:Y O *D sky130_fd_sc_hd__nand2_1
*CAP
1 *1107:A2 0.000105242
2 *1106:Y 0.000105242
3 *1107:A2 *1431:RESET_B 0
4 *1412:D *1107:A2 0
5 *315:441 *1107:A2 0
*RES
1 *1106:Y *1107:A2 20.7964 
*END

*D_NET *401 0.000700675
*CONN
*I *1110:B1 I *D sky130_fd_sc_hd__o21ai_0
*I *1108:Y O *D sky130_fd_sc_hd__nand2_1
*CAP
1 *1110:B1 0.000350338
2 *1108:Y 0.000350338
3 *1110:B1 *1413:CLK 0
4 *1110:B1 *624:10 0
5 *1110:B1 *629:30 0
*RES
1 *1108:Y *1110:B1 35.1179 
*END

*D_NET *402 0.000130055
*CONN
*I *1110:A2 I *D sky130_fd_sc_hd__o21ai_0
*I *1109:Y O *D sky130_fd_sc_hd__nand2_1
*CAP
1 *1110:A2 6.50276e-05
2 *1109:Y 6.50276e-05
3 *1110:A2 *633:22 0
4 *1110:A1 *1110:A2 0
5 *315:434 *1110:A2 0
*RES
1 *1109:Y *1110:A2 19.9571 
*END

*D_NET *403 9.3691e-05
*CONN
*I *1113:B1 I *D sky130_fd_sc_hd__o21ai_0
*I *1111:Y O *D sky130_fd_sc_hd__nand2_1
*CAP
1 *1113:B1 4.68455e-05
2 *1111:Y 4.68455e-05
3 *1113:B1 *773:12 0
4 *316:148 *1113:B1 0
5 *316:164 *1113:B1 0
*RES
1 *1111:Y *1113:B1 19.5152 
*END

*D_NET *404 0.000239478
*CONN
*I *1113:A2 I *D sky130_fd_sc_hd__o21ai_0
*I *1112:Y O *D sky130_fd_sc_hd__nand2_1
*CAP
1 *1113:A2 0.000119739
2 *1112:Y 0.000119739
3 *1113:A2 *635:20 0
4 *1113:A2 *651:29 0
5 *1113:A2 *773:12 0
6 *360:82 *1113:A2 0
*RES
1 *1112:Y *1113:A2 30.2071 
*END

*D_NET *405 0.000267665
*CONN
*I *1116:B1 I *D sky130_fd_sc_hd__o21ai_0
*I *1114:Y O *D sky130_fd_sc_hd__nand2_1
*CAP
1 *1116:B1 0.000133833
2 *1114:Y 0.000133833
3 *1116:B1 *694:25 0
4 *1060:B *1116:B1 0
5 *315:637 *1116:B1 0
6 *316:184 *1116:B1 0
*RES
1 *1114:Y *1116:B1 30.4929 
*END

*D_NET *406 0.000240923
*CONN
*I *1116:A2 I *D sky130_fd_sc_hd__o21ai_0
*I *1115:Y O *D sky130_fd_sc_hd__nand2_1
*CAP
1 *1116:A2 0.000120462
2 *1115:Y 0.000120462
3 *1116:A2 *1401:RESET_B 0
4 *1116:A2 *603:448 0
5 *1116:A1 *1116:A2 0
6 *316:174 *1116:A2 0
7 *316:184 *1116:A2 0
8 *360:57 *1116:A2 0
*RES
1 *1115:Y *1116:A2 30.1893 
*END

*D_NET *407 0.000431495
*CONN
*I *1119:B1 I *D sky130_fd_sc_hd__o21ai_0
*I *1117:Y O *D sky130_fd_sc_hd__nand2_1
*CAP
1 *1119:B1 0.000215747
2 *1117:Y 0.000215747
3 *1119:B1 *1119:A2 0
4 *1119:B1 *1416:CLK 0
5 *1214:B *1119:B1 0
6 *315:688 *1119:B1 0
7 *316:965 *1119:B1 0
*RES
1 *1117:Y *1119:B1 32.1357 
*END

*D_NET *408 0.000319562
*CONN
*I *1119:A2 I *D sky130_fd_sc_hd__o21ai_0
*I *1118:Y O *D sky130_fd_sc_hd__nand2_1
*CAP
1 *1119:A2 0.000159781
2 *1118:Y 0.000159781
3 *1119:B1 *1119:A2 0
4 *315:688 *1119:A2 0
5 *316:963 *1119:A2 0
6 *316:965 *1119:A2 0
*RES
1 *1118:Y *1119:A2 31.0107 
*END

*D_NET *409 0.000436736
*CONN
*I *1122:A I *D sky130_fd_sc_hd__nand2_1
*I *1120:Y O *D sky130_fd_sc_hd__nand2_1
*CAP
1 *1122:A 0.000218368
2 *1120:Y 0.000218368
3 *1122:A *1224:A 0
4 *1122:A *606:17 0
5 *1122:A *639:18 0
6 *1122:A *778:26 0
7 *1417:D *1122:A 0
8 *315:735 *1122:A 0
*RES
1 *1120:Y *1122:A 32.5107 
*END

*D_NET *410 0.000380236
*CONN
*I *1122:B I *D sky130_fd_sc_hd__nand2_1
*I *1121:Y O *D sky130_fd_sc_hd__nand2_1
*CAP
1 *1122:B 0.000190118
2 *1121:Y 0.000190118
3 *1122:B *639:18 0
4 *1122:B *778:26 0
5 *316:961 *1122:B 0
*RES
1 *1121:Y *1122:B 31.725 
*END

*D_NET *411 0.000171463
*CONN
*I *1125:B1 I *D sky130_fd_sc_hd__o21ai_0
*I *1123:Y O *D sky130_fd_sc_hd__nand2_1
*CAP
1 *1125:B1 8.57316e-05
2 *1123:Y 8.57316e-05
3 *1125:B1 *778:20 0
4 *315:742 *1125:B1 0
*RES
1 *1123:Y *1125:B1 29.5464 
*END

*D_NET *412 0.000370171
*CONN
*I *1125:A2 I *D sky130_fd_sc_hd__o21ai_0
*I *1124:Y O *D sky130_fd_sc_hd__nand2_1
*CAP
1 *1125:A2 0.000185086
2 *1124:Y 0.000185086
3 *1125:A2 *1418:CLK 0
4 *1125:A2 *603:544 0
5 *1233:A1 *1125:A2 0
6 *1418:D *1125:A2 0
7 *315:742 *1125:A2 0
*RES
1 *1124:Y *1125:A2 31.5464 
*END

*D_NET *413 0.000130055
*CONN
*I *1128:B1 I *D sky130_fd_sc_hd__o21ai_0
*I *1126:Y O *D sky130_fd_sc_hd__nand2_1
*CAP
1 *1128:B1 6.50276e-05
2 *1126:Y 6.50276e-05
3 *1126:B *1128:B1 0
4 *1453:D *1128:B1 0
*RES
1 *1126:Y *1128:B1 19.9571 
*END

*D_NET *414 0.000398319
*CONN
*I *1128:A2 I *D sky130_fd_sc_hd__o21ai_0
*I *1127:Y O *D sky130_fd_sc_hd__nand2_1
*CAP
1 *1128:A2 0.00019916
2 *1127:Y 0.00019916
3 *1128:A2 *1419:CLK 0
4 *1128:A2 *603:745 0
5 *360:364 *1128:A2 0
*RES
1 *1127:Y *1128:A2 31.8321 
*END

*D_NET *415 0.00068952
*CONN
*I *1131:A I *D sky130_fd_sc_hd__nand2_1
*I *1129:Y O *D sky130_fd_sc_hd__nand2_1
*CAP
1 *1131:A 0.00034476
2 *1129:Y 0.00034476
3 *1131:A *1130:A 0
4 *1131:A *1218:B1 0
5 *1216:B *1131:A 0
6 *1217:B *1131:A 0
7 *1420:D *1131:A 0
8 *315:878 *1131:A 0
9 *316:1052 *1131:A 0
*RES
1 *1129:Y *1131:A 35.0643 
*END

*D_NET *416 0.000365473
*CONN
*I *1131:B I *D sky130_fd_sc_hd__nand2_1
*I *1130:Y O *D sky130_fd_sc_hd__nand2_1
*CAP
1 *1131:B 0.000182736
2 *1130:Y 0.000182736
3 *1131:B *1130:A 0
4 *1216:B *1131:B 0
5 *1420:D *1131:B 0
*RES
1 *1130:Y *1131:B 31.5464 
*END

*D_NET *417 0.000210484
*CONN
*I *1134:A I *D sky130_fd_sc_hd__nand2_1
*I *1132:Y O *D sky130_fd_sc_hd__nand2_1
*CAP
1 *1134:A 0.000105242
2 *1132:Y 0.000105242
3 *1421:D *1134:A 0
*RES
1 *1132:Y *1134:A 20.7964 
*END

*D_NET *418 0.000301518
*CONN
*I *1134:B I *D sky130_fd_sc_hd__nand2_1
*I *1133:Y O *D sky130_fd_sc_hd__nand2_1
*CAP
1 *1134:B 0.000150759
2 *1133:Y 0.000150759
3 *1134:B *1132:A 0
4 *1134:B *1135:A 0
5 *1132:B *1134:B 0
*RES
1 *1133:Y *1134:B 30.9036 
*END

*D_NET *419 0.000314135
*CONN
*I *1137:A I *D sky130_fd_sc_hd__nand2_1
*I *1135:Y O *D sky130_fd_sc_hd__nand2_1
*CAP
1 *1137:A 0.000157068
2 *1135:Y 0.000157068
3 *315:981 *1137:A 0
*RES
1 *1135:Y *1137:A 31.0107 
*END

*D_NET *420 0.000131766
*CONN
*I *1137:B I *D sky130_fd_sc_hd__nand2_1
*I *1136:Y O *D sky130_fd_sc_hd__nand2_1
*CAP
1 *1137:B 6.58832e-05
2 *1136:Y 6.58832e-05
3 *1136:B *1137:B 0
4 *315:981 *1137:B 0
*RES
1 *1136:Y *1137:B 19.975 
*END

*D_NET *421 0.000392732
*CONN
*I *1140:A I *D sky130_fd_sc_hd__nand2_1
*I *1138:Y O *D sky130_fd_sc_hd__nand2_1
*CAP
1 *1140:A 0.000196366
2 *1138:Y 0.000196366
3 *1140:A *1140:B 0
4 *316:328 *1140:A 0
*RES
1 *1138:Y *1140:A 22.6357 
*END

*D_NET *422 0.000131766
*CONN
*I *1140:B I *D sky130_fd_sc_hd__nand2_1
*I *1139:Y O *D sky130_fd_sc_hd__nand2_1
*CAP
1 *1140:B 6.58832e-05
2 *1139:Y 6.58832e-05
3 *1140:B *1139:A 0
4 *1139:B *1140:B 0
5 *1140:A *1140:B 0
6 *316:328 *1140:B 0
*RES
1 *1139:Y *1140:B 19.975 
*END

*D_NET *423 9.06964e-05
*CONN
*I *1143:B1 I *D sky130_fd_sc_hd__o21ai_0
*I *1141:Y O *D sky130_fd_sc_hd__nand2_1
*CAP
1 *1143:B1 4.53482e-05
2 *1141:Y 4.53482e-05
3 *1143:B1 *1141:A 0
*RES
1 *1141:Y *1143:B1 19.5464 
*END

*D_NET *424 0.000572857
*CONN
*I *1143:A2 I *D sky130_fd_sc_hd__o21ai_0
*I *1142:Y O *D sky130_fd_sc_hd__nand2_1
*CAP
1 *1143:A2 0.000286428
2 *1142:Y 0.000286428
3 *1143:A2 *1142:A 0
4 *1143:A2 *1144:A 0
5 *1143:A2 *603:673 0
6 *1059:B1 *1143:A2 0
7 *316:268 *1143:A2 0
8 *316:274 *1143:A2 0
9 *316:281 *1143:A2 0
*RES
1 *1142:Y *1143:A2 33.85 
*END

*D_NET *425 0.000466838
*CONN
*I *1146:A I *D sky130_fd_sc_hd__nand2_1
*I *1144:Y O *D sky130_fd_sc_hd__nand2_1
*CAP
1 *1146:A 0.000233419
2 *1144:Y 0.000233419
3 *1146:A *1146:B 0
4 *1146:A *1426:RESET_B 0
5 *1146:A *603:679 0
6 *316:281 *1146:A 0
*RES
1 *1144:Y *1146:A 32.7429 
*END

*D_NET *426 0.000367822
*CONN
*I *1146:B I *D sky130_fd_sc_hd__nand2_1
*I *1145:Y O *D sky130_fd_sc_hd__nand2_1
*CAP
1 *1146:B 0.000183911
2 *1145:Y 0.000183911
3 *1146:A *1146:B 0
4 *1425:D *1146:B 0
*RES
1 *1145:Y *1146:B 31.5464 
*END

*D_NET *427 0.000131766
*CONN
*I *1149:A I *D sky130_fd_sc_hd__nand2_1
*I *1147:Y O *D sky130_fd_sc_hd__nand2_1
*CAP
1 *1149:A 6.58832e-05
2 *1147:Y 6.58832e-05
3 *1144:B *1149:A 0
*RES
1 *1147:Y *1149:A 19.975 
*END

*D_NET *428 0.000473079
*CONN
*I *1149:B I *D sky130_fd_sc_hd__nand2_1
*I *1148:Y O *D sky130_fd_sc_hd__nand2_1
*CAP
1 *1149:B 0.000236539
2 *1148:Y 0.000236539
3 *1149:B *1425:CLK 0
4 *1426:D *1149:B 0
*RES
1 *1148:Y *1149:B 32.7429 
*END

*D_NET *429 0.000754743
*CONN
*I *1152:A I *D sky130_fd_sc_hd__nand2_1
*I *1150:Y O *D sky130_fd_sc_hd__nand2_1
*CAP
1 *1152:A 0.000377372
2 *1150:Y 0.000377372
3 *1152:A *1152:B 0
4 *1152:A *603:390 0
5 *1152:A *603:401 0
6 *1152:A *649:10 0
7 *1152:A *693:22 0
8 *1152:A *694:17 0
9 *316:235 *1152:A 0
*RES
1 *1150:Y *1152:A 35.6714 
*END

*D_NET *430 0.000537671
*CONN
*I *1152:B I *D sky130_fd_sc_hd__nand2_1
*I *1151:Y O *D sky130_fd_sc_hd__nand2_1
*CAP
1 *1152:B 0.000268836
2 *1151:Y 0.000268836
3 *1152:B *603:390 0
4 *1152:B *694:17 0
5 *1152:A *1152:B 0
*RES
1 *1151:Y *1152:B 33.3679 
*END

*D_NET *431 0.00057703
*CONN
*I *1155:B1 I *D sky130_fd_sc_hd__o21ai_0
*I *1153:Y O *D sky130_fd_sc_hd__nand2_1
*CAP
1 *1155:B1 0.000288515
2 *1153:Y 0.000288515
3 *1428:D *1155:B1 0
*RES
1 *1153:Y *1155:B1 33.7786 
*END

*D_NET *432 0.000449353
*CONN
*I *1155:A2 I *D sky130_fd_sc_hd__o21ai_0
*I *1154:Y O *D sky130_fd_sc_hd__nand2_1
*CAP
1 *1155:A2 0.000224677
2 *1154:Y 0.000224677
3 *1155:A2 *694:25 0
4 *1155:A2 *695:12 0
5 *1428:D *1155:A2 0
6 *315:553 *1155:A2 0
*RES
1 *1154:Y *1155:A2 32.6179 
*END

*D_NET *433 0.000852907
*CONN
*I *1158:A I *D sky130_fd_sc_hd__nand2_1
*I *1156:Y O *D sky130_fd_sc_hd__nand2_1
*CAP
1 *1158:A 0.000426453
2 *1156:Y 0.000426453
3 *1158:A *1081:A 0
4 *1158:A *1082:A 0
5 *1158:A *1085:A 0
6 *1158:A *1405:CLK 0
7 *1158:A *624:38 0
8 *1158:A *695:12 0
9 *1158:A *696:10 0
10 *1086:A1 *1158:A 0
11 *315:502 *1158:A 0
*RES
1 *1156:Y *1158:A 37.1893 
*END

*D_NET *434 0.000247396
*CONN
*I *1158:B I *D sky130_fd_sc_hd__nand2_1
*I *1157:Y O *D sky130_fd_sc_hd__nand2_1
*CAP
1 *1158:B 0.000123698
2 *1157:Y 0.000123698
3 *1158:B *1081:A 0
4 *1158:B *1082:A 0
5 *1086:A1 *1158:B 0
6 *1429:D *1158:B 0
*RES
1 *1157:Y *1158:B 30.3143 
*END

*D_NET *435 0.00032856
*CONN
*I *1161:A I *D sky130_fd_sc_hd__nand2_1
*I *1159:Y O *D sky130_fd_sc_hd__nand2_1
*CAP
1 *1161:A 0.00016428
2 *1159:Y 0.00016428
3 *1161:A *1161:B 0
4 *1161:A *696:30 0
5 *1160:B *1161:A 0
6 *1411:D *1161:A 0
7 *316:393 *1161:A 0
*RES
1 *1159:Y *1161:A 22.0286 
*END

*D_NET *436 0.000131766
*CONN
*I *1161:B I *D sky130_fd_sc_hd__nand2_1
*I *1160:Y O *D sky130_fd_sc_hd__nand2_1
*CAP
1 *1161:B 6.58832e-05
2 *1160:Y 6.58832e-05
3 *1104:A1 *1161:B 0
4 *1160:B *1161:B 0
5 *1161:A *1161:B 0
*RES
1 *1160:Y *1161:B 19.975 
*END

*D_NET *437 0.000515454
*CONN
*I *1164:B1 I *D sky130_fd_sc_hd__o21ai_0
*I *1162:Y O *D sky130_fd_sc_hd__nand2_1
*CAP
1 *1164:B1 0.000257727
2 *1162:Y 0.000257727
3 *1164:B1 *1163:A 0
4 *1164:B1 *1164:A2 0
5 *1164:B1 *698:8 0
6 *1164:B1 *702:8 0
7 *1163:B *1164:B1 0
8 *1164:A1 *1164:B1 0
9 *1431:D *1164:B1 0
10 *181:6 *1164:B1 0
*RES
1 *1162:Y *1164:B1 33.3321 
*END

*D_NET *438 0.000668246
*CONN
*I *1164:A2 I *D sky130_fd_sc_hd__o21ai_0
*I *1163:Y O *D sky130_fd_sc_hd__nand2_1
*CAP
1 *1164:A2 0.000334123
2 *1163:Y 0.000334123
3 *1164:B1 *1164:A2 0
*RES
1 *1163:Y *1164:A2 34.7071 
*END

*D_NET *439 9.06964e-05
*CONN
*I *1167:B1 I *D sky130_fd_sc_hd__o21ai_0
*I *1165:Y O *D sky130_fd_sc_hd__nand2_1
*CAP
1 *1167:B1 4.53482e-05
2 *1165:Y 4.53482e-05
3 *1167:B1 *1167:A2 0
4 *316:592 *1167:B1 0
*RES
1 *1165:Y *1167:B1 19.5464 
*END

*D_NET *440 0.000525257
*CONN
*I *1167:A2 I *D sky130_fd_sc_hd__o21ai_0
*I *1166:Y O *D sky130_fd_sc_hd__nand2_1
*CAP
1 *1167:A2 0.000262629
2 *1166:Y 0.000262629
3 *1167:A2 *1165:A 0
4 *1167:A2 *699:8 0
5 *1167:B1 *1167:A2 0
6 *1168:B *1167:A2 0
7 *1432:D *1167:A2 0
8 *316:592 *1167:A2 0
*RES
1 *1166:Y *1167:A2 33.1893 
*END

*D_NET *441 0.000595152
*CONN
*I *1170:B1 I *D sky130_fd_sc_hd__o21ai_0
*I *1168:Y O *D sky130_fd_sc_hd__nand2_1
*CAP
1 *1170:B1 0.000297576
2 *1168:Y 0.000297576
3 *1170:B1 *603:842 0
4 *1170:B1 *685:7 0
5 *1433:D *1170:B1 0
6 *360:480 *1170:B1 0
7 *360:487 *1170:B1 0
*RES
1 *1168:Y *1170:B1 33.8857 
*END

*D_NET *442 0.000210484
*CONN
*I *1170:A2 I *D sky130_fd_sc_hd__o21ai_0
*I *1169:Y O *D sky130_fd_sc_hd__nand2_1
*CAP
1 *1170:A2 0.000105242
2 *1169:Y 0.000105242
*RES
1 *1169:Y *1170:A2 20.7964 
*END

*D_NET *443 0.000171125
*CONN
*I *1173:A I *D sky130_fd_sc_hd__nand2_1
*I *1171:Y O *D sky130_fd_sc_hd__nand2_1
*CAP
1 *1173:A 8.55626e-05
2 *1171:Y 8.55626e-05
3 *1173:A *1466:RESET_B 0
4 *1173:A *763:30 0
*RES
1 *1171:Y *1173:A 20.3857 
*END

*D_NET *444 0.000262081
*CONN
*I *1173:B I *D sky130_fd_sc_hd__nand2_1
*I *1172:Y O *D sky130_fd_sc_hd__nand2_1
*CAP
1 *1173:B 0.00013104
2 *1172:Y 0.00013104
3 *1173:B *1174:A 0
4 *316:574 *1173:B 0
5 *360:509 *1173:B 0
*RES
1 *1172:Y *1173:B 30.4929 
*END

*D_NET *445 0.000584835
*CONN
*I *1176:A I *D sky130_fd_sc_hd__nand2_1
*I *1174:Y O *D sky130_fd_sc_hd__nand2_1
*CAP
1 *1176:A 0.000292418
2 *1174:Y 0.000292418
3 *1176:A *1176:B 0
4 *1176:A *1433:CLK 0
5 *1176:A *687:12 0
6 *1435:D *1176:A 0
7 *315:227 *1176:A 0
8 *315:229 *1176:A 0
9 *316:579 *1176:A 0
10 *316:592 *1176:A 0
*RES
1 *1174:Y *1176:A 33.975 
*END

*D_NET *446 0.000319641
*CONN
*I *1176:B I *D sky130_fd_sc_hd__nand2_1
*I *1175:Y O *D sky130_fd_sc_hd__nand2_1
*CAP
1 *1176:B 0.00015982
2 *1175:Y 0.00015982
3 *1176:B *1274:A 0
4 *1176:B *1435:CLK 0
5 *1176:B *656:25 0
6 *1176:A *1176:B 0
7 *1435:D *1176:B 0
8 *316:615 *1176:B 0
*RES
1 *1175:Y *1176:B 31.0107 
*END

*D_NET *447 0.000235418
*CONN
*I *1179:B1 I *D sky130_fd_sc_hd__o21ai_0
*I *1177:Y O *D sky130_fd_sc_hd__nand2_1
*CAP
1 *1179:B1 0.000117709
2 *1177:Y 0.000117709
3 *1179:B1 *1179:A2 0
4 *1179:B1 *1468:CLK 0
*RES
1 *1177:Y *1179:B1 30.1893 
*END

*D_NET *448 0.000520881
*CONN
*I *1179:A2 I *D sky130_fd_sc_hd__o21ai_0
*I *1178:Y O *D sky130_fd_sc_hd__nand2_1
*CAP
1 *1179:A2 0.00026044
2 *1178:Y 0.00026044
3 *1179:A2 *1275:A 0
4 *1179:A2 *1468:CLK 0
5 *1179:A1 *1179:A2 0
6 *1179:B1 *1179:A2 0
7 *1272:A1 *1179:A2 0
8 *1274:B *1179:A2 0
9 *1468:D *1179:A2 0
*RES
1 *1178:Y *1179:A2 33.3321 
*END

*D_NET *449 0.00026212
*CONN
*I *1182:A I *D sky130_fd_sc_hd__nand2_1
*I *1180:Y O *D sky130_fd_sc_hd__nand2_1
*CAP
1 *1182:A 0.00013106
2 *1180:Y 0.00013106
3 *1182:A *1181:A 0
4 *1182:A *1437:CLK 0
5 *1182:A *579:12 0
6 *1180:B *1182:A 0
*RES
1 *1180:Y *1182:A 30.4929 
*END

*D_NET *450 0.000274737
*CONN
*I *1182:B I *D sky130_fd_sc_hd__nand2_1
*I *1181:Y O *D sky130_fd_sc_hd__nand2_1
*CAP
1 *1182:B 0.000137369
2 *1181:Y 0.000137369
3 *1182:B *1268:A 0
4 *1182:B *1269:B 0
5 *1180:B *1182:B 0
*RES
1 *1181:Y *1182:B 30.6 
*END

*D_NET *451 0.000629996
*CONN
*I *1185:B1 I *D sky130_fd_sc_hd__o21ai_0
*I *1183:Y O *D sky130_fd_sc_hd__nand2_1
*CAP
1 *1185:B1 0.000314998
2 *1183:Y 0.000314998
3 *1185:B1 *1438:RESET_B 0
4 *1185:B1 *1511:RESET_B 0
5 *1185:B1 *603:861 0
6 *1185:B1 *603:875 0
7 *1185:B1 *690:7 0
8 *315:285 *1185:B1 0
9 *316:567 *1185:B1 0
10 *316:574 *1185:B1 0
11 *360:528 *1185:B1 0
*RES
1 *1183:Y *1185:B1 34.4214 
*END

*D_NET *452 0.000210484
*CONN
*I *1185:A2 I *D sky130_fd_sc_hd__o21ai_0
*I *1184:Y O *D sky130_fd_sc_hd__nand2_1
*CAP
1 *1185:A2 0.000105242
2 *1184:Y 0.000105242
3 *1185:A2 *578:13 0
4 *315:288 *1185:A2 0
*RES
1 *1184:Y *1185:A2 20.7964 
*END

*D_NET *453 0.000616231
*CONN
*I *1188:B1 I *D sky130_fd_sc_hd__o21ai_0
*I *1186:Y O *D sky130_fd_sc_hd__nand2_1
*CAP
1 *1188:B1 0.000308116
2 *1186:Y 0.000308116
3 *1188:B1 *1188:A2 0
4 *1188:B1 *603:807 0
5 *315:194 *1188:B1 0
6 *316:78 *1188:B1 0
*RES
1 *1186:Y *1188:B1 34.1893 
*END

*D_NET *454 0.000493942
*CONN
*I *1188:A2 I *D sky130_fd_sc_hd__o21ai_0
*I *1187:Y O *D sky130_fd_sc_hd__nand2_1
*CAP
1 *1188:A2 0.000246971
2 *1187:Y 0.000246971
3 *1188:A2 *603:833 0
4 *1188:A2 *603:856 0
5 *1188:A1 *1188:A2 0
6 *1188:B1 *1188:A2 0
7 *1439:D *1188:A2 0
8 *315:145 *1188:A2 0
9 *316:78 *1188:A2 0
10 *316:559 *1188:A2 0
*RES
1 *1187:Y *1188:A2 33.0286 
*END

*D_NET *455 0.000571591
*CONN
*I *1191:B1 I *D sky130_fd_sc_hd__o21ai_0
*I *1189:Y O *D sky130_fd_sc_hd__nand2_1
*CAP
1 *1191:B1 0.000285795
2 *1189:Y 0.000285795
3 *1191:B1 *1186:A 0
4 *1191:B1 *1191:A2 0
5 *1191:B1 *604:22 0
6 *1440:D *1191:B1 0
7 *316:65 *1191:B1 0
*RES
1 *1189:Y *1191:B1 33.6893 
*END

*D_NET *456 0.000381181
*CONN
*I *1191:A2 I *D sky130_fd_sc_hd__o21ai_0
*I *1190:Y O *D sky130_fd_sc_hd__nand2_1
*CAP
1 *1191:A2 0.000190591
2 *1190:Y 0.000190591
3 *1191:A2 *1278:B1 0
4 *1191:A2 *604:22 0
5 *1191:B1 *1191:A2 0
6 *1440:D *1191:A2 0
7 *360:558 *1191:A2 0
*RES
1 *1190:Y *1191:A2 22.7071 
*END

*D_NET *457 0.000201969
*CONN
*I *1194:A I *D sky130_fd_sc_hd__nand2_1
*I *1192:Y O *D sky130_fd_sc_hd__nand2_1
*CAP
1 *1194:A 0.000100985
2 *1192:Y 0.000100985
3 *1194:A *1469:CLK 0
4 *1194:A *767:5 0
5 *1164:A1 *1194:A 0
*RES
1 *1192:Y *1194:A 29.7786 
*END

*D_NET *458 0.000131766
*CONN
*I *1194:B I *D sky130_fd_sc_hd__nand2_1
*I *1193:Y O *D sky130_fd_sc_hd__nand2_1
*CAP
1 *1194:B 6.58832e-05
2 *1193:Y 6.58832e-05
3 *1194:B *1193:A 0
4 *1194:B *767:10 0
*RES
1 *1193:Y *1194:B 19.975 
*END

*D_NET *459 0.00063353
*CONN
*I *1197:A I *D sky130_fd_sc_hd__nand2_1
*I *1195:Y O *D sky130_fd_sc_hd__nand2_1
*CAP
1 *1197:A 0.000316765
2 *1195:Y 0.000316765
3 *1197:A *767:26 0
4 *1164:A1 *1197:A 0
5 *1442:D *1197:A 0
6 *315:199 *1197:A 0
7 *316:84 *1197:A 0
*RES
1 *1195:Y *1197:A 34.5643 
*END

*D_NET *460 0.000255832
*CONN
*I *1197:B I *D sky130_fd_sc_hd__nand2_1
*I *1196:Y O *D sky130_fd_sc_hd__nand2_1
*CAP
1 *1197:B 0.000127916
2 *1196:Y 0.000127916
3 *1196:B *1197:B 0
4 *1442:D *1197:B 0
5 *316:84 *1197:B 0
6 *316:92 *1197:B 0
*RES
1 *1196:Y *1197:B 21.2071 
*END

*D_NET *461 0.00047157
*CONN
*I *1200:A I *D sky130_fd_sc_hd__nand2_1
*I *1198:Y O *D sky130_fd_sc_hd__nand2_1
*CAP
1 *1200:A 0.000235785
2 *1198:Y 0.000235785
3 *1200:A *613:17 0
4 *1198:B *1200:A 0
5 *315:373 *1200:A 0
6 *316:110 *1200:A 0
*RES
1 *1198:Y *1200:A 32.6536 
*END

*D_NET *462 0.000773824
*CONN
*I *1200:B I *D sky130_fd_sc_hd__nand2_1
*I *1199:Y O *D sky130_fd_sc_hd__nand2_1
*CAP
1 *1200:B 0.000386912
2 *1199:Y 0.000386912
3 *1200:B *603:149 0
4 *316:110 *1200:B 0
5 *316:119 *1200:B 0
*RES
1 *1199:Y *1200:B 35.8321 
*END

*D_NET *463 9.06963e-05
*CONN
*I *1203:B1 I *D sky130_fd_sc_hd__o21ai_0
*I *1201:Y O *D sky130_fd_sc_hd__nand2_1
*CAP
1 *1203:B1 4.53482e-05
2 *1201:Y 4.53482e-05
3 *1201:B *1203:B1 0
*RES
1 *1201:Y *1203:B1 19.5464 
*END

*D_NET *464 0.000392853
*CONN
*I *1203:A2 I *D sky130_fd_sc_hd__o21ai_0
*I *1202:Y O *D sky130_fd_sc_hd__nand2_1
*CAP
1 *1203:A2 0.000196426
2 *1202:Y 0.000196426
3 *1203:A2 *614:8 0
4 *1203:A2 *698:36 0
5 *316:119 *1203:A2 0
*RES
1 *1202:Y *1203:A2 31.8321 
*END

*D_NET *465 0.000475728
*CONN
*I *1206:A I *D sky130_fd_sc_hd__nand2_1
*I *1204:Y O *D sky130_fd_sc_hd__nand2_1
*CAP
1 *1206:A 0.000237864
2 *1204:Y 0.000237864
3 *1206:A *615:26 0
4 *1023:D *1206:A 0
5 *1204:B *1206:A 0
*RES
1 *1204:Y *1206:A 23.5643 
*END

*D_NET *466 0.000599599
*CONN
*I *1206:B I *D sky130_fd_sc_hd__nand2_1
*I *1205:Y O *D sky130_fd_sc_hd__nand2_1
*CAP
1 *1206:B 0.000299799
2 *1205:Y 0.000299799
3 *1206:B *900:C2 0
4 *1206:B *907:A1 0
5 *1206:B *940:A1 0
6 *1206:B *1044:A 0
7 *1206:B *699:25 0
8 *1045:D *1206:B 0
9 *1445:D *1206:B 0
*RES
1 *1205:Y *1206:B 34.1536 
*END

*D_NET *467 0.000537197
*CONN
*I *1209:A I *D sky130_fd_sc_hd__nand2_1
*I *1207:Y O *D sky130_fd_sc_hd__nand2_1
*CAP
1 *1209:A 0.000268598
2 *1207:Y 0.000268598
3 *1209:A *620:41 0
4 *1207:B *1209:A 0
*RES
1 *1207:Y *1209:A 33.3143 
*END

*D_NET *468 0.000144643
*CONN
*I *1209:B I *D sky130_fd_sc_hd__nand2_1
*I *1208:Y O *D sky130_fd_sc_hd__nand2_1
*CAP
1 *1209:B 7.23213e-05
2 *1208:Y 7.23213e-05
3 *1209:B *1039:A 0
4 *1207:B *1209:B 0
*RES
1 *1208:Y *1209:B 29.2429 
*END

*D_NET *469 0.000643131
*CONN
*I *1212:B1 I *D sky130_fd_sc_hd__o21ai_0
*I *1210:Y O *D sky130_fd_sc_hd__nand2_1
*CAP
1 *1212:B1 0.000321565
2 *1210:Y 0.000321565
3 *1212:B1 *1212:A2 0
4 *1212:B1 *1446:RESET_B 0
5 *1212:B1 *617:5 0
6 *1210:B *1212:B1 0
7 *315:680 *1212:B1 0
*RES
1 *1210:Y *1212:B1 34.4929 
*END

*D_NET *470 0.0004155
*CONN
*I *1212:A2 I *D sky130_fd_sc_hd__o21ai_0
*I *1211:Y O *D sky130_fd_sc_hd__nand2_1
*CAP
1 *1212:A2 0.00020775
2 *1211:Y 0.00020775
3 *1212:A2 *1211:A 0
4 *1212:B1 *1212:A2 0
5 *315:680 *1212:A2 0
6 *316:965 *1212:A2 0
7 *316:970 *1212:A2 0
*RES
1 *1211:Y *1212:A2 32.2071 
*END

*D_NET *471 9.06964e-05
*CONN
*I *1215:B1 I *D sky130_fd_sc_hd__o21ai_0
*I *1213:Y O *D sky130_fd_sc_hd__nand2_1
*CAP
1 *1215:B1 4.53482e-05
2 *1213:Y 4.53482e-05
3 *316:1026 *1215:B1 0
*RES
1 *1213:Y *1215:B1 19.5464 
*END

*D_NET *472 0.000249843
*CONN
*I *1215:A2 I *D sky130_fd_sc_hd__o21ai_0
*I *1214:Y O *D sky130_fd_sc_hd__nand2_1
*CAP
1 *1215:A2 0.000124921
2 *1214:Y 0.000124921
3 *1215:A2 *1214:A 0
4 *1215:A2 *1446:RESET_B 0
*RES
1 *1214:Y *1215:A2 21.2071 
*END

*D_NET *473 0.000842303
*CONN
*I *1218:B1 I *D sky130_fd_sc_hd__o21ai_0
*I *1216:Y O *D sky130_fd_sc_hd__nand2_1
*CAP
1 *1218:B1 0.000421152
2 *1216:Y 0.000421152
3 *1218:B1 *1132:A 0
4 *1218:B1 *1218:A2 0
5 *1218:B1 *641:8 0
6 *1131:A *1218:B1 0
7 *1217:B *1218:B1 0
*RES
1 *1216:Y *1218:B1 36.7429 
*END

*D_NET *474 0.000210484
*CONN
*I *1218:A2 I *D sky130_fd_sc_hd__o21ai_0
*I *1217:Y O *D sky130_fd_sc_hd__nand2_1
*CAP
1 *1218:A2 0.000105242
2 *1217:Y 0.000105242
3 *1217:B *1218:A2 0
4 *1218:B1 *1218:A2 0
*RES
1 *1217:Y *1218:A2 20.7964 
*END

*D_NET *475 0.000351986
*CONN
*I *1221:A I *D sky130_fd_sc_hd__nand2_1
*I *1219:Y O *D sky130_fd_sc_hd__nand2_1
*CAP
1 *1221:A 0.000175993
2 *1219:Y 0.000175993
3 *1221:A *1420:CLK 0
4 *1221:A *606:17 0
5 *316:1026 *1221:A 0
*RES
1 *1219:Y *1221:A 31.3321 
*END

*D_NET *476 0.000210484
*CONN
*I *1221:B I *D sky130_fd_sc_hd__nand2_1
*I *1220:Y O *D sky130_fd_sc_hd__nand2_1
*CAP
1 *1221:B 0.000105242
2 *1220:Y 0.000105242
3 *1221:B *1420:CLK 0
4 *1221:B *606:17 0
*RES
1 *1220:Y *1221:B 20.7964 
*END

*D_NET *477 0.000728925
*CONN
*I *1224:A I *D sky130_fd_sc_hd__nand2_1
*I *1222:Y O *D sky130_fd_sc_hd__nand2_1
*CAP
1 *1224:A 0.000364463
2 *1222:Y 0.000364463
3 *1224:A *1224:B 0
4 *1224:A *639:18 0
5 *1224:A *778:26 0
6 *1122:A *1224:A 0
7 *1223:B *1224:A 0
8 *1417:D *1224:A 0
9 *1451:D *1224:A 0
10 *316:961 *1224:A 0
11 *316:963 *1224:A 0
*RES
1 *1222:Y *1224:A 35.5107 
*END

*D_NET *478 0.000131766
*CONN
*I *1224:B I *D sky130_fd_sc_hd__nand2_1
*I *1223:Y O *D sky130_fd_sc_hd__nand2_1
*CAP
1 *1224:B 6.58832e-05
2 *1223:Y 6.58832e-05
3 *1223:B *1224:B 0
4 *1224:A *1224:B 0
5 *1451:D *1224:B 0
*RES
1 *1223:Y *1224:B 19.975 
*END

*D_NET *479 0.000550249
*CONN
*I *1227:B1 I *D sky130_fd_sc_hd__o21ai_0
*I *1225:Y O *D sky130_fd_sc_hd__nand2_1
*CAP
1 *1227:B1 0.000275124
2 *1225:Y 0.000275124
3 *1227:B1 *608:12 0
4 *1452:D *1227:B1 0
*RES
1 *1225:Y *1227:B1 33.475 
*END

*D_NET *480 0.00032856
*CONN
*I *1227:A2 I *D sky130_fd_sc_hd__o21ai_0
*I *1226:Y O *D sky130_fd_sc_hd__nand2_1
*CAP
1 *1227:A2 0.00016428
2 *1226:Y 0.00016428
3 *1227:A2 *1226:A 0
4 *1227:A1 *1227:A2 0
5 *1452:D *1227:A2 0
*RES
1 *1226:Y *1227:A2 22.0286 
*END

*D_NET *481 0.000262159
*CONN
*I *1230:A I *D sky130_fd_sc_hd__nand2_1
*I *1228:Y O *D sky130_fd_sc_hd__nand2_1
*CAP
1 *1230:A 0.00013108
2 *1228:Y 0.00013108
3 *1230:A *1126:A 0
4 *1244:B *1230:A 0
5 *316:1064 *1230:A 0
*RES
1 *1228:Y *1230:A 30.4929 
*END

*D_NET *482 0.000137756
*CONN
*I *1230:B I *D sky130_fd_sc_hd__nand2_1
*I *1229:Y O *D sky130_fd_sc_hd__nand2_1
*CAP
1 *1230:B 6.88779e-05
2 *1229:Y 6.88779e-05
3 *1453:D *1230:B 0
4 *316:1069 *1230:B 0
*RES
1 *1229:Y *1230:B 19.975 
*END

*D_NET *483 0.000358617
*CONN
*I *1233:B1 I *D sky130_fd_sc_hd__o21ai_0
*I *1231:Y O *D sky130_fd_sc_hd__nand2_1
*CAP
1 *1233:B1 0.000179309
2 *1231:Y 0.000179309
3 *1233:B1 *610:14 0
4 *1233:B1 *610:48 0
5 *316:950 *1233:B1 0
*RES
1 *1231:Y *1233:B1 31.6714 
*END

*D_NET *484 0.000432211
*CONN
*I *1233:A2 I *D sky130_fd_sc_hd__o21ai_0
*I *1232:Y O *D sky130_fd_sc_hd__nand2_1
*CAP
1 *1233:A2 0.000216106
2 *1232:Y 0.000216106
3 *1233:A2 *1454:CLK 0
4 *1233:A2 *609:26 0
5 *1233:A2 *652:16 0
6 *1233:A2 *778:17 0
7 *1233:A1 *1233:A2 0
*RES
1 *1232:Y *1233:A2 32.2429 
*END

*D_NET *485 9.06964e-05
*CONN
*I *1236:B1 I *D sky130_fd_sc_hd__o21ai_0
*I *1234:Y O *D sky130_fd_sc_hd__nand2_1
*CAP
1 *1236:B1 4.53482e-05
2 *1234:Y 4.53482e-05
3 *1236:B1 *674:14 0
4 *1234:B *1236:B1 0
*RES
1 *1234:Y *1236:B1 19.5464 
*END

*D_NET *486 0.000240884
*CONN
*I *1236:A2 I *D sky130_fd_sc_hd__o21ai_0
*I *1235:Y O *D sky130_fd_sc_hd__nand2_1
*CAP
1 *1236:A2 0.000120442
2 *1235:Y 0.000120442
3 *1236:A2 *1235:A 0
4 *1236:A2 *603:616 0
5 *360:394 *1236:A2 0
*RES
1 *1235:Y *1236:A2 30.1893 
*END

*D_NET *487 0.000764224
*CONN
*I *1239:A I *D sky130_fd_sc_hd__nand2_1
*I *1237:Y O *D sky130_fd_sc_hd__nand2_1
*CAP
1 *1239:A 0.000382112
2 *1237:Y 0.000382112
3 *1239:A *1239:B 0
4 *1239:A *1456:RESET_B 0
5 *1239:A *663:10 0
6 *1456:D *1239:A 0
7 *315:826 *1239:A 0
8 *316:940 *1239:A 0
*RES
1 *1237:Y *1239:A 35.9036 
*END

*D_NET *488 0.000274776
*CONN
*I *1239:B I *D sky130_fd_sc_hd__nand2_1
*I *1238:Y O *D sky130_fd_sc_hd__nand2_1
*CAP
1 *1239:B 0.000137388
2 *1238:Y 0.000137388
3 *1239:B *1456:CLK 0
4 *1239:B *663:26 0
5 *1239:A *1239:B 0
6 *1240:B *1239:B 0
7 *1456:D *1239:B 0
*RES
1 *1238:Y *1239:B 30.6 
*END

*D_NET *489 0.000314096
*CONN
*I *1242:B1 I *D sky130_fd_sc_hd__o21ai_0
*I *1240:Y O *D sky130_fd_sc_hd__nand2_1
*CAP
1 *1242:B1 0.000157048
2 *1240:Y 0.000157048
3 *1242:B1 *1241:A 0
4 *1242:B1 *779:90 0
5 *1240:B *1242:B1 0
*RES
1 *1240:Y *1242:B1 31.0107 
*END

*D_NET *490 0.000248132
*CONN
*I *1242:A2 I *D sky130_fd_sc_hd__o21ai_0
*I *1241:Y O *D sky130_fd_sc_hd__nand2_1
*CAP
1 *1242:A2 0.000124066
2 *1241:Y 0.000124066
3 *1242:A1 *1242:A2 0
4 *1243:B *1242:A2 0
*RES
1 *1241:Y *1242:A2 21.1893 
*END

*D_NET *491 0.000340877
*CONN
*I *1245:A I *D sky130_fd_sc_hd__nand2_1
*I *1243:Y O *D sky130_fd_sc_hd__nand2_1
*CAP
1 *1245:A 0.000170439
2 *1243:Y 0.000170439
3 *1245:A *1243:A 0
4 *1245:A *1245:B 0
5 *1243:B *1245:A 0
*RES
1 *1243:Y *1245:A 31.3143 
*END

*D_NET *492 0.000551999
*CONN
*I *1245:B I *D sky130_fd_sc_hd__nand2_1
*I *1244:Y O *D sky130_fd_sc_hd__nand2_1
*CAP
1 *1245:B 0.000276
2 *1244:Y 0.000276
3 *1245:A *1245:B 0
4 *1458:D *1245:B 0
*RES
1 *1244:Y *1245:B 33.4929 
*END

*D_NET *493 0.000475977
*CONN
*I *1248:B1 I *D sky130_fd_sc_hd__o21ai_0
*I *1246:Y O *D sky130_fd_sc_hd__nand2_1
*CAP
1 *1248:B1 0.000237989
2 *1246:Y 0.000237989
3 *1248:B1 *1248:A2 0
4 *1248:B1 *678:12 0
5 *315:769 *1248:B1 0
*RES
1 *1246:Y *1248:B1 32.9214 
*END

*D_NET *494 0.000527433
*CONN
*I *1248:A2 I *D sky130_fd_sc_hd__o21ai_0
*I *1247:Y O *D sky130_fd_sc_hd__nand2_1
*CAP
1 *1248:A2 0.000263716
2 *1247:Y 0.000263716
3 *1247:B *1248:A2 0
4 *1248:B1 *1248:A2 0
5 *315:769 *1248:A2 0
*RES
1 *1247:Y *1248:A2 33.4571 
*END

*D_NET *495 0.000452626
*CONN
*I *1251:A I *D sky130_fd_sc_hd__nand2_1
*I *1249:Y O *D sky130_fd_sc_hd__nand2_1
*CAP
1 *1251:A 0.000226313
2 *1249:Y 0.000226313
3 *1251:A *1250:A 0
4 *1251:A *1251:B 0
5 *1459:D *1251:A 0
6 *315:769 *1251:A 0
*RES
1 *1249:Y *1251:A 23.2607 
*END

*D_NET *496 0.000210484
*CONN
*I *1251:B I *D sky130_fd_sc_hd__nand2_1
*I *1250:Y O *D sky130_fd_sc_hd__nand2_1
*CAP
1 *1251:B 0.000105242
2 *1250:Y 0.000105242
3 *1251:A *1251:B 0
4 *1460:D *1251:B 0
5 *316:908 *1251:B 0
*RES
1 *1250:Y *1251:B 20.7964 
*END

*D_NET *497 0.000249843
*CONN
*I *1254:B1 I *D sky130_fd_sc_hd__o21ai_0
*I *1252:Y O *D sky130_fd_sc_hd__nand2_1
*CAP
1 *1254:B1 0.000124921
2 *1252:Y 0.000124921
3 *1254:B1 *1461:CLK 0
4 *1254:B1 *680:7 0
5 *1254:A1 *1254:B1 0
*RES
1 *1252:Y *1254:B1 21.2071 
*END

*D_NET *498 0.000589647
*CONN
*I *1254:A2 I *D sky130_fd_sc_hd__o21ai_0
*I *1253:Y O *D sky130_fd_sc_hd__nand2_1
*CAP
1 *1254:A2 0.000294823
2 *1253:Y 0.000294823
3 *1254:A2 *948:A1 0
4 *1254:A2 *1015:B 0
5 *1015:C *1254:A2 0
6 *1253:B *1254:A2 0
7 *315:93 *1254:A2 0
*RES
1 *1253:Y *1254:A2 33.8857 
*END

*D_NET *499 0.000210484
*CONN
*I *1257:A I *D sky130_fd_sc_hd__nand2_1
*I *1255:Y O *D sky130_fd_sc_hd__nand2_1
*CAP
1 *1257:A 0.000105242
2 *1255:Y 0.000105242
*RES
1 *1255:Y *1257:A 20.7964 
*END

*D_NET *500 0.000419595
*CONN
*I *1257:B I *D sky130_fd_sc_hd__nand2_1
*I *1256:Y O *D sky130_fd_sc_hd__nand2_1
*CAP
1 *1257:B 0.000209797
2 *1256:Y 0.000209797
3 *1257:B *1295:A 0
4 *1257:B *662:8 0
5 *1257:B *681:15 0
6 *1257:B *770:19 0
7 *1295:B *1257:B 0
8 *315:124 *1257:B 0
*RES
1 *1256:Y *1257:B 32.1357 
*END

*D_NET *501 0.000481522
*CONN
*I *1260:B1 I *D sky130_fd_sc_hd__o21ai_0
*I *1258:Y O *D sky130_fd_sc_hd__nand2_1
*CAP
1 *1260:B1 0.000240761
2 *1258:Y 0.000240761
3 *1260:B1 *1258:A 0
4 *1260:B1 *1473:CLK 0
5 *1260:B1 *768:8 0
6 *1260:B1 *768:12 0
7 *1258:B *1260:B1 0
*RES
1 *1258:Y *1260:B1 32.9214 
*END

*D_NET *502 0.000720073
*CONN
*I *1260:A2 I *D sky130_fd_sc_hd__o21ai_0
*I *1259:Y O *D sky130_fd_sc_hd__nand2_1
*CAP
1 *1260:A2 0.000360036
2 *1259:Y 0.000360036
3 *1260:A2 *1473:CLK 0
4 *1260:A2 *592:173 0
5 *1260:A2 *592:189 0
6 *1259:B *1260:A2 0
7 *1463:D *1260:A2 0
*RES
1 *1259:Y *1260:A2 35.4571 
*END

*D_NET *503 0.000878645
*CONN
*I *1263:A I *D sky130_fd_sc_hd__nand2_1
*I *1261:Y O *D sky130_fd_sc_hd__nand2_1
*CAP
1 *1263:A 0.000439323
2 *1261:Y 0.000439323
3 *1263:A *1262:A 0
4 *1263:A *1437:RESET_B 0
5 *1263:A *592:200 0
6 *1263:A *603:889 0
7 *1263:A *653:10 0
8 *1263:A *768:22 0
9 *1263:A *768:33 0
*RES
1 *1261:Y *1263:A 36.975 
*END

*D_NET *504 0.000131766
*CONN
*I *1263:B I *D sky130_fd_sc_hd__nand2_1
*I *1262:Y O *D sky130_fd_sc_hd__nand2_1
*CAP
1 *1263:B 6.58832e-05
2 *1262:Y 6.58832e-05
3 *1263:B *1262:A 0
4 *1263:B *653:10 0
*RES
1 *1262:Y *1263:B 19.975 
*END

*D_NET *505 0.000222801
*CONN
*I *1266:B1 I *D sky130_fd_sc_hd__o21ai_0
*I *1264:Y O *D sky130_fd_sc_hd__nand2_1
*CAP
1 *1266:B1 0.0001114
2 *1264:Y 0.0001114
3 *1266:B1 *1267:A 0
4 *1264:B *1266:B1 0
*RES
1 *1264:Y *1266:B1 30.0821 
*END

*D_NET *506 0.000239575
*CONN
*I *1266:A2 I *D sky130_fd_sc_hd__o21ai_0
*I *1265:Y O *D sky130_fd_sc_hd__nand2_1
*CAP
1 *1266:A2 0.000119788
2 *1265:Y 0.000119788
3 *1265:B *1266:A2 0
4 *1266:A1 *1266:A2 0
5 *315:292 *1266:A2 0
6 *315:299 *1266:A2 0
*RES
1 *1265:Y *1266:A2 21.1 
*END

*D_NET *507 0.000268667
*CONN
*I *1269:A I *D sky130_fd_sc_hd__nand2_1
*I *1267:Y O *D sky130_fd_sc_hd__nand2_1
*CAP
1 *1269:A 0.000134333
2 *1267:Y 0.000134333
3 *1269:A *1269:B 0
4 *1180:B *1269:A 0
*RES
1 *1267:Y *1269:A 21.4036 
*END

*D_NET *508 0.000643334
*CONN
*I *1269:B I *D sky130_fd_sc_hd__nand2_1
*I *1268:Y O *D sky130_fd_sc_hd__nand2_1
*CAP
1 *1269:B 0.000321667
2 *1268:Y 0.000321667
3 *1269:B *1268:A 0
4 *1180:B *1269:B 0
5 *1182:B *1269:B 0
6 *1269:A *1269:B 0
7 *1437:D *1269:B 0
*RES
1 *1268:Y *1269:B 34.4214 
*END

*D_NET *509 0.000527354
*CONN
*I *1272:B1 I *D sky130_fd_sc_hd__o21ai_0
*I *1270:Y O *D sky130_fd_sc_hd__nand2_1
*CAP
1 *1272:B1 0.000263677
2 *1270:Y 0.000263677
3 *1272:B1 *1272:A2 0
4 *1272:B1 *1467:CLK 0
5 *1272:B1 *579:12 0
6 *1272:B1 *763:40 0
7 *1178:B *1272:B1 0
8 *1272:A1 *1272:B1 0
9 *1467:D *1272:B1 0
10 *316:627 *1272:B1 0
11 *316:634 *1272:B1 0
*RES
1 *1270:Y *1272:B1 33.4571 
*END

*D_NET *510 0.000210484
*CONN
*I *1272:A2 I *D sky130_fd_sc_hd__o21ai_0
*I *1271:Y O *D sky130_fd_sc_hd__nand2_1
*CAP
1 *1272:A2 0.000105242
2 *1271:Y 0.000105242
3 *1272:A2 *1271:A 0
4 *1272:A2 *763:40 0
5 *1271:B *1272:A2 0
6 *1272:B1 *1272:A2 0
*RES
1 *1271:Y *1272:A2 20.7964 
*END

*D_NET *511 0.000515454
*CONN
*I *1275:A I *D sky130_fd_sc_hd__nand2_1
*I *1273:Y O *D sky130_fd_sc_hd__nand2_1
*CAP
1 *1275:A 0.000257727
2 *1273:Y 0.000257727
3 *1275:A *1270:A 0
4 *1275:A *579:12 0
5 *1179:A2 *1275:A 0
6 *1468:D *1275:A 0
7 *316:627 *1275:A 0
*RES
1 *1273:Y *1275:A 33.3321 
*END

*D_NET *512 0.000239575
*CONN
*I *1275:B I *D sky130_fd_sc_hd__nand2_1
*I *1274:Y O *D sky130_fd_sc_hd__nand2_1
*CAP
1 *1275:B 0.000119788
2 *1274:Y 0.000119788
3 *1274:B *1275:B 0
*RES
1 *1274:Y *1275:B 21.1 
*END

*D_NET *513 0.000208773
*CONN
*I *1278:B1 I *D sky130_fd_sc_hd__o21ai_0
*I *1276:Y O *D sky130_fd_sc_hd__nand2_1
*CAP
1 *1278:B1 0.000104386
2 *1276:Y 0.000104386
3 *1278:B1 *604:22 0
4 *1191:A2 *1278:B1 0
*RES
1 *1276:Y *1278:B1 20.7786 
*END

*D_NET *514 0.00072177
*CONN
*I *1278:A2 I *D sky130_fd_sc_hd__o21ai_0
*I *1277:Y O *D sky130_fd_sc_hd__nand2_1
*CAP
1 *1278:A2 0.000360885
2 *1277:Y 0.000360885
3 *1278:A2 *611:9 0
4 *1278:A2 *611:33 0
5 *1469:D *1278:A2 0
6 *315:133 *1278:A2 0
7 *315:364 *1278:A2 0
8 *315:371 *1278:A2 0
9 *316:65 *1278:A2 0
10 *360:452 *1278:A2 0
*RES
1 *1277:Y *1278:A2 35.3143 
*END

*D_NET *515 0.000540771
*CONN
*I *1281:A I *D sky130_fd_sc_hd__nand2_1
*I *1279:Y O *D sky130_fd_sc_hd__nand2_1
*CAP
1 *1281:A 0.000270386
2 *1279:Y 0.000270386
3 *1281:A *1281:B 0
4 *1281:A *1284:A2 0
5 *1281:A *1284:B1 0
6 *1281:A *765:14 0
7 *1470:D *1281:A 0
8 *316:57 *1281:A 0
*RES
1 *1279:Y *1281:A 33.7071 
*END

*D_NET *516 0.000661865
*CONN
*I *1281:B I *D sky130_fd_sc_hd__nand2_1
*I *1280:Y O *D sky130_fd_sc_hd__nand2_1
*CAP
1 *1281:B 0.000330933
2 *1280:Y 0.000330933
3 *1281:B *1284:B1 0
4 *1281:A *1281:B 0
5 *1284:A1 *1281:B 0
6 *316:50 *1281:B 0
*RES
1 *1280:Y *1281:B 34.8857 
*END

*D_NET *517 0.000248132
*CONN
*I *1284:B1 I *D sky130_fd_sc_hd__o21ai_0
*I *1282:Y O *D sky130_fd_sc_hd__nand2_1
*CAP
1 *1284:B1 0.000124066
2 *1282:Y 0.000124066
3 *1284:B1 *660:27 0
4 *1281:A *1284:B1 0
5 *1281:B *1284:B1 0
*RES
1 *1282:Y *1284:B1 21.1893 
*END

*D_NET *518 0.000392853
*CONN
*I *1284:A2 I *D sky130_fd_sc_hd__o21ai_0
*I *1283:Y O *D sky130_fd_sc_hd__nand2_1
*CAP
1 *1284:A2 0.000196426
2 *1283:Y 0.000196426
3 *1284:A2 *1283:A 0
4 *1284:A2 *1470:RESET_B 0
5 *1284:A2 *765:14 0
6 *1281:A *1284:A2 0
7 *1283:B *1284:A2 0
*RES
1 *1283:Y *1284:A2 31.8321 
*END

*D_NET *519 0.00128674
*CONN
*I *1287:A I *D sky130_fd_sc_hd__nand2_1
*I *1285:Y O *D sky130_fd_sc_hd__nand2_1
*CAP
1 *1287:A 0.00064337
2 *1285:Y 0.00064337
3 *1287:A *1470:CLK 0
4 *1287:A *659:8 0
5 *1287:A *770:19 0
6 *1285:B *1287:A 0
7 *1471:D *1287:A 0
8 *315:93 *1287:A 0
9 *316:34 *1287:A 0
*RES
1 *1285:Y *1287:A 41.1714 
*END

*D_NET *520 0.000409994
*CONN
*I *1287:B I *D sky130_fd_sc_hd__nand2_1
*I *1286:Y O *D sky130_fd_sc_hd__nand2_1
*CAP
1 *1287:B 0.000204997
2 *1286:Y 0.000204997
3 *1287:B *1286:A 0
4 *1472:D *1287:B 0
5 *316:733 *1287:B 0
6 *360:446 *1287:B 0
*RES
1 *1286:Y *1287:B 32.2071 
*END

*D_NET *521 9.06964e-05
*CONN
*I *1290:B1 I *D sky130_fd_sc_hd__o21ai_0
*I *1288:Y O *D sky130_fd_sc_hd__nand2_1
*CAP
1 *1290:B1 4.53482e-05
2 *1288:Y 4.53482e-05
3 *1290:B1 *1290:A2 0
4 *1289:B *1290:B1 0
*RES
1 *1288:Y *1290:B1 19.5464 
*END

*D_NET *522 0.000367919
*CONN
*I *1290:A2 I *D sky130_fd_sc_hd__o21ai_0
*I *1289:Y O *D sky130_fd_sc_hd__nand2_1
*CAP
1 *1290:A2 0.00018396
2 *1289:Y 0.00018396
3 *1289:B *1290:A2 0
4 *1290:B1 *1290:A2 0
*RES
1 *1289:Y *1290:A2 22.4393 
*END

*D_NET *523 0.000340403
*CONN
*I *1293:A I *D sky130_fd_sc_hd__nand2_1
*I *1291:Y O *D sky130_fd_sc_hd__nand2_1
*CAP
1 *1293:A 0.000170201
2 *1291:Y 0.000170201
3 *1293:A *593:11 0
4 *1258:B *1293:A 0
5 *1259:B *1293:A 0
6 *316:736 *1293:A 0
*RES
1 *1291:Y *1293:A 31.2607 
*END

*D_NET *524 0.000326278
*CONN
*I *1293:B I *D sky130_fd_sc_hd__nand2_1
*I *1292:Y O *D sky130_fd_sc_hd__nand2_1
*CAP
1 *1293:B 0.000163139
2 *1292:Y 0.000163139
3 *1258:B *1293:B 0
4 *1259:B *1293:B 0
5 *316:736 *1293:B 0
*RES
1 *1292:Y *1293:B 31.0643 
*END

*D_NET *525 0.000865158
*CONN
*I *1296:B1 I *D sky130_fd_sc_hd__o21ai_0
*I *1294:Y O *D sky130_fd_sc_hd__nand2_1
*CAP
1 *1296:B1 0.000432579
2 *1294:Y 0.000432579
3 *1296:B1 *770:49 0
4 *1296:A1 *1296:B1 0
5 *316:24 *1296:B1 0
*RES
1 *1294:Y *1296:B1 36.7607 
*END

*D_NET *526 0.000438201
*CONN
*I *1296:A2 I *D sky130_fd_sc_hd__o21ai_0
*I *1295:Y O *D sky130_fd_sc_hd__nand2_1
*CAP
1 *1296:A2 0.0002191
2 *1295:Y 0.0002191
3 *1296:A2 *1832:A 0
4 *1296:A2 *770:5 0
5 *1296:A2 *770:10 0
*RES
1 *1295:Y *1296:A2 32.2429 
*END

*D_NET *527 0.000385399
*CONN
*I *1299:A I *D sky130_fd_sc_hd__nand2_1
*I *1297:Y O *D sky130_fd_sc_hd__nand2_1
*CAP
1 *1299:A 0.000192699
2 *1297:Y 0.000192699
3 *1299:A *1299:B 0
4 *1299:A *1301:A 0
*RES
1 *1297:Y *1299:A 31.975 
*END

*D_NET *528 0.000600883
*CONN
*I *1299:B I *D sky130_fd_sc_hd__nand2_1
*I *1298:Y O *D sky130_fd_sc_hd__nand2_1
*CAP
1 *1299:B 0.000300441
2 *1298:Y 0.000300441
3 *1299:B *1301:A 0
4 *1299:B *1461:CLK 0
5 *1299:B *664:23 0
6 *1299:B *664:34 0
7 *1299:A *1299:B 0
8 *1476:D *1299:B 0
9 *315:87 *1299:B 0
*RES
1 *1298:Y *1299:B 34.2964 
*END

*D_NET *529 0.000214762
*CONN
*I *1302:B1 I *D sky130_fd_sc_hd__o21ai_0
*I *1300:Y O *D sky130_fd_sc_hd__nand2_1
*CAP
1 *1302:B1 0.000107381
2 *1300:Y 0.000107381
3 *1302:B1 *1305:B 0
4 *1304:B *1302:B1 0
5 *316:851 *1302:B1 0
*RES
1 *1300:Y *1302:B1 20.7786 
*END

*D_NET *530 0.000392853
*CONN
*I *1302:A2 I *D sky130_fd_sc_hd__o21ai_0
*I *1301:Y O *D sky130_fd_sc_hd__nand2_1
*CAP
1 *1302:A2 0.000196426
2 *1301:Y 0.000196426
3 *1302:A2 *603:35 0
4 *1478:D *1302:A2 0
5 *315:82 *1302:A2 0
6 *316:20 *1302:A2 0
7 *360:428 *1302:A2 0
*RES
1 *1301:Y *1302:A2 31.8321 
*END

*D_NET *531 0.000424665
*CONN
*I *1305:A I *D sky130_fd_sc_hd__nand2_1
*I *1303:Y O *D sky130_fd_sc_hd__nand2_1
*CAP
1 *1305:A 0.000212333
2 *1303:Y 0.000212333
3 *1305:A *1303:A 0
4 *1305:A *1305:B 0
5 *1305:A *1327:A 0
6 *1305:A *603:22 0
7 *1305:A *676:17 0
8 *1478:D *1305:A 0
*RES
1 *1303:Y *1305:A 32.0821 
*END

*D_NET *532 0.000848292
*CONN
*I *1305:B I *D sky130_fd_sc_hd__nand2_1
*I *1304:Y O *D sky130_fd_sc_hd__nand2_1
*CAP
1 *1305:B 0.000424146
2 *1304:Y 0.000424146
3 *1305:B *1303:A 0
4 *1302:B1 *1305:B 0
5 *1304:B *1305:B 0
6 *1305:A *1305:B 0
7 *1477:D *1305:B 0
8 *1478:D *1305:B 0
9 *316:20 *1305:B 0
10 *316:851 *1305:B 0
11 *360:428 *1305:B 0
*RES
1 *1304:Y *1305:B 36.7429 
*END

*D_NET *533 0.000763349
*CONN
*I *1308:B1 I *D sky130_fd_sc_hd__o21ai_0
*I *1306:Y O *D sky130_fd_sc_hd__nand2_1
*CAP
1 *1308:B1 0.000381675
2 *1306:Y 0.000381675
3 *1308:B1 *928:B2 0
4 *1308:B1 *1479:CLK 0
5 *1308:B1 *603:74 0
6 *1308:B1 *669:35 0
7 *1009:D *1308:B1 0
8 *1310:B *1308:B1 0
*RES
1 *1306:Y *1308:B1 35.9214 
*END

*D_NET *534 0.000305458
*CONN
*I *1308:A2 I *D sky130_fd_sc_hd__o21ai_0
*I *1307:Y O *D sky130_fd_sc_hd__nand2_1
*CAP
1 *1308:A2 0.000152729
2 *1307:Y 0.000152729
3 *1308:A2 *667:31 0
4 *1308:A2 *669:35 0
5 *1009:D *1308:A2 0
*RES
1 *1307:Y *1308:A2 22.0643 
*END

*D_NET *535 0.000576833
*CONN
*I *1311:A I *D sky130_fd_sc_hd__nand2_1
*I *1309:Y O *D sky130_fd_sc_hd__nand2_1
*CAP
1 *1311:A 0.000288417
2 *1309:Y 0.000288417
3 *1311:A *1480:RESET_B 0
4 *1311:A *668:21 0
5 *1311:A *668:29 0
6 *1009:D *1311:A 0
7 *219:20 *1311:A 0
*RES
1 *1309:Y *1311:A 33.7786 
*END

*D_NET *536 0.000181776
*CONN
*I *1311:B I *D sky130_fd_sc_hd__nand2_1
*I *1310:Y O *D sky130_fd_sc_hd__nand2_1
*CAP
1 *1311:B 9.08882e-05
2 *1310:Y 9.08882e-05
3 *1311:B *669:27 0
4 *219:20 *1311:B 0
*RES
1 *1310:Y *1311:B 29.5821 
*END

*D_NET *537 9.06964e-05
*CONN
*I *1314:B1 I *D sky130_fd_sc_hd__o21ai_0
*I *1312:Y O *D sky130_fd_sc_hd__nand2_1
*CAP
1 *1314:B1 4.53482e-05
2 *1312:Y 4.53482e-05
*RES
1 *1312:Y *1314:B1 19.5464 
*END

*D_NET *538 0.000314017
*CONN
*I *1314:A2 I *D sky130_fd_sc_hd__o21ai_0
*I *1313:Y O *D sky130_fd_sc_hd__nand2_1
*CAP
1 *1314:A2 0.000157009
2 *1313:Y 0.000157009
3 *1314:A2 *1007:B 0
4 *1314:A2 *673:8 0
*RES
1 *1313:Y *1314:A2 31.0107 
*END

*D_NET *539 0.000340877
*CONN
*I *1317:A I *D sky130_fd_sc_hd__nand2_1
*I *1315:Y O *D sky130_fd_sc_hd__nand2_1
*CAP
1 *1317:A 0.000170439
2 *1315:Y 0.000170439
3 *1317:A *620:27 0
4 *1315:B *1317:A 0
5 *316:908 *1317:A 0
*RES
1 *1315:Y *1317:A 31.3143 
*END

*D_NET *540 0.000196059
*CONN
*I *1317:B I *D sky130_fd_sc_hd__nand2_1
*I *1316:Y O *D sky130_fd_sc_hd__nand2_1
*CAP
1 *1317:B 9.80294e-05
2 *1316:Y 9.80294e-05
3 *1317:B *776:43 0
4 *242:20 *1317:B 0
5 *316:908 *1317:B 0
*RES
1 *1316:Y *1317:B 29.7786 
*END

*D_NET *541 0.000385399
*CONN
*I *1320:B1 I *D sky130_fd_sc_hd__o21ai_0
*I *1318:Y O *D sky130_fd_sc_hd__nand2_1
*CAP
1 *1320:B1 0.000192699
2 *1318:Y 0.000192699
3 *1320:B1 *1318:A 0
4 *1320:B1 *620:27 0
5 *1320:B1 *672:11 0
*RES
1 *1318:Y *1320:B1 31.975 
*END

*D_NET *542 0.000392853
*CONN
*I *1320:A2 I *D sky130_fd_sc_hd__o21ai_0
*I *1319:Y O *D sky130_fd_sc_hd__nand2_1
*CAP
1 *1320:A2 0.000196426
2 *1319:Y 0.000196426
3 *1320:A2 *1319:A 0
4 *1320:A1 *1320:A2 0
5 *1483:D *1320:A2 0
6 *242:20 *1320:A2 0
*RES
1 *1319:Y *1320:A2 31.8321 
*END

*D_NET *543 0.000496848
*CONN
*I *1323:A I *D sky130_fd_sc_hd__nand2_1
*I *1321:Y O *D sky130_fd_sc_hd__nand2_1
*CAP
1 *1323:A 0.000248424
2 *1321:Y 0.000248424
3 *1323:A *1323:B 0
4 *1323:A *1324:A 0
5 *1323:A *1325:A 0
6 *1323:A *1326:B1 0
7 *1002:B *1323:A 0
8 *1484:D *1323:A 0
9 *219:20 *1323:A 0
*RES
1 *1321:Y *1323:A 33.0286 
*END

*D_NET *544 0.000997445
*CONN
*I *1323:B I *D sky130_fd_sc_hd__nand2_1
*I *1322:Y O *D sky130_fd_sc_hd__nand2_1
*CAP
1 *1323:B 0.000498722
2 *1322:Y 0.000498722
3 *1323:B *1003:A 0
4 *1323:B *1324:A 0
5 *1323:B *1391:SET_B 0
6 *1004:B *1323:B 0
7 *1318:B *1323:B 0
8 *1323:A *1323:B 0
*RES
1 *1322:Y *1323:B 38.1179 
*END

*D_NET *545 0.000171463
*CONN
*I *1326:B1 I *D sky130_fd_sc_hd__o21ai_0
*I *1324:Y O *D sky130_fd_sc_hd__nand2_1
*CAP
1 *1326:B1 8.57316e-05
2 *1324:Y 8.57316e-05
3 *1326:B1 *1321:A 0
4 *1002:B *1326:B1 0
5 *1323:A *1326:B1 0
6 *1326:A1 *1326:B1 0
7 *219:20 *1326:B1 0
*RES
1 *1324:Y *1326:B1 29.5464 
*END

*D_NET *546 0.000289202
*CONN
*I *1326:A2 I *D sky130_fd_sc_hd__o21ai_0
*I *1325:Y O *D sky130_fd_sc_hd__nand2_1
*CAP
1 *1326:A2 0.000144601
2 *1325:Y 0.000144601
3 *1326:A2 *1325:A 0
4 *1326:A2 *1484:CLK 0
5 *1002:B *1326:A2 0
6 *1321:B *1326:A2 0
7 *315:57 *1326:A2 0
*RES
1 *1325:Y *1326:A2 21.6179 
*END

*D_NET *547 0.000498312
*CONN
*I *1329:A I *D sky130_fd_sc_hd__nand2_1
*I *1327:Y O *D sky130_fd_sc_hd__nand2_1
*CAP
1 *1329:A 0.000249156
2 *1327:Y 0.000249156
3 *1329:A *603:14 0
4 *316:20 *1329:A 0
*RES
1 *1327:Y *1329:A 32.9571 
*END

*D_NET *548 0.000515454
*CONN
*I *1329:B I *D sky130_fd_sc_hd__nand2_1
*I *1328:Y O *D sky130_fd_sc_hd__nand2_1
*CAP
1 *1329:B 0.000257727
2 *1328:Y 0.000257727
3 *1329:B *1328:A 0
4 *1329:B *1477:CLK 0
5 *1329:B *1486:CLK 0
6 *1329:B *771:20 0
7 *1328:B *1329:B 0
8 *360:602 *1329:B 0
*RES
1 *1328:Y *1329:B 33.3321 
*END

*D_NET *549 9.06963e-05
*CONN
*I *1332:B1 I *D sky130_fd_sc_hd__o21ai_0
*I *1330:Y O *D sky130_fd_sc_hd__nand2_1
*CAP
1 *1332:B1 4.53482e-05
2 *1330:Y 4.53482e-05
3 *1332:B1 *1332:A2 0
4 *1331:B *1332:B1 0
5 *316:11 *1332:B1 0
*RES
1 *1330:Y *1332:B1 19.5464 
*END

*D_NET *550 0.000446637
*CONN
*I *1332:A2 I *D sky130_fd_sc_hd__o21ai_0
*I *1331:Y O *D sky130_fd_sc_hd__nand2_1
*CAP
1 *1332:A2 0.000223318
2 *1331:Y 0.000223318
3 *1332:A2 *1330:A 0
4 *1331:B *1332:A2 0
5 *1332:B1 *1332:A2 0
6 *1369:A2 *1332:A2 0
7 *316:11 *1332:A2 0
8 *316:872 *1332:A2 0
*RES
1 *1331:Y *1332:A2 23.2607 
*END

*D_NET *551 0.00109892
*CONN
*I *1366:C I *D sky130_fd_sc_hd__nor4b_1
*I *1338:A I *D sky130_fd_sc_hd__nor2_1
*I *1333:Y O *D sky130_fd_sc_hd__a21oi_1
*CAP
1 *1366:C 0
2 *1338:A 0.000308652
3 *1333:Y 0.00024081
4 *551:8 0.000549462
5 *1338:A *1338:B 0
6 *1338:A *1503:RESET_B 0
7 *1338:A *555:5 0
8 *1338:A *704:11 0
9 *551:8 *805:A2 0
10 *551:8 *1502:RESET_B 0
11 *551:8 *1503:RESET_B 0
12 *551:8 *705:5 0
13 *551:8 *705:53 0
14 *810:B1 *551:8 0
15 *1333:B1 *551:8 0
16 *1366:A *551:8 0
*RES
1 *1333:Y *551:8 19.1393 
2 *551:8 *1338:A 20.425 
3 *551:8 *1366:C 13.8 
*END

*D_NET *552 0.000639705
*CONN
*I *1367:A I *D sky130_fd_sc_hd__nand2_1
*I *1337:A I *D sky130_fd_sc_hd__nand2_1
*I *1334:Y O *D sky130_fd_sc_hd__o21ai_0
*CAP
1 *1367:A 0.000205626
2 *1337:A 0.000114226
3 *1334:Y 0
4 *552:4 0.000319852
5 *1337:A *1334:B1 0
6 *1337:A *555:5 0
7 *1337:A *555:36 0
8 *1367:A *804:B 0
9 *1367:A *1335:C 0
10 *1367:A *1368:A2 0
11 *1367:A *752:31 0
*RES
1 *1334:Y *552:4 9.3 
2 *552:4 *1337:A 11.7464 
3 *552:4 *1367:A 23.1929 
*END

*D_NET *553 0.000450059
*CONN
*I *1336:B1 I *D sky130_fd_sc_hd__o22a_1
*I *1340:B I *D sky130_fd_sc_hd__nor2_1
*I *1335:X O *D sky130_fd_sc_hd__or3_1
*CAP
1 *1336:B1 0
2 *1340:B 0.000131553
3 *1335:X 9.34771e-05
4 *553:7 0.00022503
5 *1340:B *1336:B2 0
6 *1340:B *558:7 0
7 *553:7 *554:13 0
8 *553:7 *558:7 0
*RES
1 *1335:X *553:7 11.3893 
2 *553:7 *1340:B 12.3357 
3 *553:7 *1336:B1 9.3 
*END

*D_NET *554 0.00139178
*CONN
*I *1366:D_N I *D sky130_fd_sc_hd__nor4b_1
*I *1337:B I *D sky130_fd_sc_hd__nand2_1
*I *1336:X O *D sky130_fd_sc_hd__o22a_1
*CAP
1 *1366:D_N 0.000320434
2 *1337:B 7.90067e-05
3 *1336:X 0.000296451
4 *554:13 0.000695891
5 *1366:D_N *805:A1 0
6 *1366:D_N *575:11 0
7 *1366:D_N *752:31 0
8 *554:13 *577:12 0
9 *554:13 *746:34 0
10 *160:10 *1366:D_N 0
11 *553:7 *554:13 0
*RES
1 *1336:X *554:13 22.8794 
2 *554:13 *1337:B 15.5946 
3 *554:13 *1366:D_N 20.5589 
*END

*D_NET *555 0.00368301
*CONN
*I *1341:B I *D sky130_fd_sc_hd__nor2_1
*I *1353:A2 I *D sky130_fd_sc_hd__o22ai_1
*I *1348:B1 I *D sky130_fd_sc_hd__a2111oi_0
*I *1338:B I *D sky130_fd_sc_hd__nor2_1
*I *1337:Y O *D sky130_fd_sc_hd__nand2_1
*CAP
1 *1341:B 0.000203639
2 *1353:A2 0.000315537
3 *1348:B1 0.000443303
4 *1338:B 0.000106098
5 *1337:Y 0
6 *555:36 0.000757764
7 *555:5 0.00108374
8 *555:4 0.000772927
9 *1341:B *1346:B 0
10 *1348:B1 *1343:A1 0
11 *1348:B1 *1343:A2 0
12 *1348:B1 *1343:B1 0
13 *1348:B1 *769:54 0
14 *1348:B1 *769:59 0
15 *1353:A2 *1354:B1 0
16 *1353:A2 *1506:CLK 0
17 *1353:A2 *584:23 0
18 *555:5 *1334:B1 0
19 *555:36 *1334:A2 0
20 *555:36 *1364:B 0
21 *555:36 *704:34 0
22 *555:36 *752:83 0
23 *1337:A *555:5 0
24 *1337:A *555:36 0
25 *1338:A *1338:B 0
26 *1338:A *555:5 0
27 *1342:A1 *1348:B1 0
28 *1353:A1 *1341:B 0
29 *1353:A1 *1353:A2 0
30 *167:11 *1348:B1 0
31 *168:45 *1341:B 0
32 *168:45 *1348:B1 0
*RES
1 *1337:Y *555:4 9.3 
2 *555:4 *555:5 11.2143 
3 *555:5 *1338:B 11.6393 
4 *555:5 *1348:B1 36.8536 
5 *555:4 *555:36 9.92857 
6 *555:36 *1353:A2 20.9071 
7 *555:36 *1341:B 18.05 
*END

*D_NET *556 0.00248027
*CONN
*I *1343:A1 I *D sky130_fd_sc_hd__a21oi_1
*I *1347:A3 I *D sky130_fd_sc_hd__a31oi_1
*I *1344:C I *D sky130_fd_sc_hd__and3_1
*I *1345:A2 I *D sky130_fd_sc_hd__a21oi_1
*I *1339:B I *D sky130_fd_sc_hd__nor2_1
*I *1338:Y O *D sky130_fd_sc_hd__nor2_1
*CAP
1 *1343:A1 4.55793e-05
2 *1347:A3 0.000134281
3 *1344:C 0
4 *1345:A2 2.0535e-05
5 *1339:B 9.1552e-05
6 *1338:Y 4.23535e-05
7 *556:31 0.000222411
8 *556:21 0.000568777
9 *556:12 0.000909258
10 *556:5 0.000445526
11 *1339:B *1339:A 0
12 *1339:B *580:13 0
13 *1339:B *580:15 0
14 *1343:A1 *1343:A2 0
15 *1345:A2 *1344:A 0
16 *1345:A2 *580:11 0
17 *1347:A3 *1347:A1 0
18 *1347:A3 *1349:C 0
19 *1347:A3 *559:26 0
20 *556:12 *1343:A2 0
21 *556:12 *1343:B1 0
22 *556:12 *564:16 0
23 *556:12 *769:59 0
24 *556:21 *580:13 0
25 *556:21 *580:71 0
26 *556:21 *581:26 0
27 *556:31 *1344:A 0
28 *556:31 *1347:A1 0
29 *556:31 *580:71 0
30 *1348:A2 *556:12 0
31 *1348:B1 *1343:A1 0
32 *1488:D *556:12 0
33 *1489:D *1347:A3 0
34 *138:29 *556:12 0
*RES
1 *1338:Y *556:5 10.2464 
2 *556:5 *556:12 16.9643 
3 *556:12 *1339:B 11.0857 
4 *556:12 *556:21 9.57143 
5 *556:21 *1345:A2 9.72857 
6 *556:21 *556:31 1.85714 
7 *556:31 *1344:C 9.3 
8 *556:31 *1347:A3 21.2107 
9 *556:5 *1343:A1 19.3357 
*END

*D_NET *557 0.00057149
*CONN
*I *1343:B1 I *D sky130_fd_sc_hd__a21oi_1
*I *1339:Y O *D sky130_fd_sc_hd__nor2_1
*CAP
1 *1343:B1 0.000285745
2 *1339:Y 0.000285745
3 *1343:B1 *564:16 0
4 *816:A2 *1343:B1 0
5 *1342:A1 *1343:B1 0
6 *1348:A2 *1343:B1 0
7 *1348:B1 *1343:B1 0
8 *167:11 *1343:B1 0
9 *556:12 *1343:B1 0
*RES
1 *1339:Y *1343:B1 33.8679 
*END

*D_NET *558 0.00347141
*CONN
*I *1365:A3 I *D sky130_fd_sc_hd__a32o_1
*I *1342:B1 I *D sky130_fd_sc_hd__a22oi_1
*I *1340:Y O *D sky130_fd_sc_hd__nor2_1
*CAP
1 *1365:A3 0.000531029
2 *1342:B1 0.00104125
3 *1340:Y 0.000163425
4 *558:7 0.00173571
5 *1342:B1 *801:A 0
6 *1365:A3 *804:B 0
7 *1365:A3 *1335:C 0
8 *1365:A3 *1365:A1 0
9 *1365:A3 *1506:CLK 0
10 *1336:A1 *558:7 0
11 *1340:B *558:7 0
12 *1500:D *1365:A3 0
13 *138:19 *1342:B1 0
14 *159:23 *558:7 0
15 *167:11 *1342:B1 0
16 *553:7 *558:7 0
*RES
1 *1340:Y *558:7 17.2107 
2 *558:7 *1342:B1 25.8226 
3 *558:7 *1365:A3 25.1929 
*END

*D_NET *559 0.00626519
*CONN
*I *1364:B I *D sky130_fd_sc_hd__nand2_1
*I *1349:A I *D sky130_fd_sc_hd__nor3_1
*I *1352:A I *D sky130_fd_sc_hd__nor3_1
*I *1358:A I *D sky130_fd_sc_hd__nor3_1
*I *1359:B1 I *D sky130_fd_sc_hd__a21o_1
*I *1363:B1 I *D sky130_fd_sc_hd__a21oi_1
*I *1346:A I *D sky130_fd_sc_hd__nor3_1
*I *1341:Y O *D sky130_fd_sc_hd__nor2_1
*CAP
1 *1364:B 0.000612938
2 *1349:A 8.55626e-05
3 *1352:A 2.56688e-05
4 *1358:A 6.45823e-05
5 *1359:B1 0.000103015
6 *1363:B1 0.000157526
7 *1346:A 0.000122944
8 *1341:Y 0
9 *559:35 0.000711214
10 *559:31 0.00123807
11 *559:26 0.00137142
12 *559:20 0.000751359
13 *559:19 0.000776874
14 *559:4 0.000244015
15 *1349:A *1349:C 0
16 *1352:A *1352:B 0
17 *1358:A *1493:CLK 0
18 *1358:A *1493:RESET_B 0
19 *1359:B1 *586:8 0
20 *1363:B1 *1363:A1 0
21 *1363:B1 *586:8 0
22 *1364:B *1346:B 0
23 *1364:B *704:34 0
24 *1364:B *706:21 0
25 *1364:B *752:75 0
26 *559:20 *1346:B 0
27 *559:26 *1346:B 0
28 *559:26 *1347:B1 0
29 *559:26 *1352:B 0
30 *559:26 *1352:C 0
31 *559:26 *565:30 0
32 *559:26 *582:11 0
33 *559:26 *583:17 0
34 *559:26 *584:16 0
35 *559:26 *592:161 0
36 *559:26 *592:173 0
37 *559:26 *769:8 0
38 *559:26 *769:17 0
39 *559:26 *769:38 0
40 *559:31 *1261:A 0
41 *559:31 *1830:A 0
42 *559:31 *583:29 0
43 *559:31 *592:173 0
44 *559:31 *769:8 0
45 *559:35 *583:29 0
46 *1347:A3 *559:26 0
47 *1353:A1 *1364:B 0
48 *1353:A1 *559:19 0
49 *1353:A1 *559:26 0
50 *1361:A1 *1359:B1 0
51 *1361:A1 *1363:B1 0
52 *1362:B *1359:B1 0
53 *1491:D *559:26 0
54 *1495:D *1363:B1 0
55 *168:45 *1346:A 0
56 *168:45 *559:19 0
57 *555:36 *1364:B 0
*RES
1 *1341:Y *559:4 9.3 
2 *559:4 *1346:A 20.925 
3 *559:4 *559:19 7.08929 
4 *559:19 *559:20 1.03571 
5 *559:20 *559:26 14.1429 
6 *559:26 *559:31 9.55395 
7 *559:31 *559:35 5.04247 
8 *559:35 *1363:B1 17.1839 
9 *559:35 *1359:B1 16.2018 
10 *559:31 *1358:A 18.6296 
11 *559:26 *1352:A 14.3357 
12 *559:20 *1349:A 15.5857 
13 *559:19 *1364:B 27.2107 
*END

*D_NET *560 0.000583974
*CONN
*I *1343:A2 I *D sky130_fd_sc_hd__a21oi_1
*I *1342:Y O *D sky130_fd_sc_hd__a22oi_1
*CAP
1 *1343:A2 0.000291987
2 *1342:Y 0.000291987
3 *1343:A2 *769:59 0
4 *1342:A2 *1343:A2 0
5 *1343:A1 *1343:A2 0
6 *1348:B1 *1343:A2 0
7 *158:20 *1343:A2 0
8 *168:15 *1343:A2 0
9 *556:12 *1343:A2 0
*RES
1 *1342:Y *1343:A2 33.8143 
*END

*D_NET *561 0.000329971
*CONN
*I *1346:B I *D sky130_fd_sc_hd__nor3_1
*I *1344:X O *D sky130_fd_sc_hd__and3_1
*CAP
1 *1346:B 0.000164986
2 *1344:X 0.000164986
3 *1346:B *752:12 0
4 *1341:B *1346:B 0
5 *1364:B *1346:B 0
6 *168:45 *1346:B 0
7 *559:20 *1346:B 0
8 *559:26 *1346:B 0
*RES
1 *1344:X *1346:B 31.225 
*END

*D_NET *562 0.000465967
*CONN
*I *1346:C I *D sky130_fd_sc_hd__nor3_1
*I *1345:Y O *D sky130_fd_sc_hd__a21oi_1
*CAP
1 *1346:C 0.000232984
2 *1345:Y 0.000232984
3 *1346:C *592:382 0
4 *1346:C *752:12 0
5 *168:45 *1346:C 0
*RES
1 *1345:Y *1346:C 32.6357 
*END

*D_NET *563 9.06964e-05
*CONN
*I *1349:B I *D sky130_fd_sc_hd__nor3_1
*I *1347:Y O *D sky130_fd_sc_hd__a31oi_1
*CAP
1 *1349:B 4.53482e-05
2 *1347:Y 4.53482e-05
*RES
1 *1347:Y *1349:B 19.5464 
*END

*D_NET *564 0.00460611
*CONN
*I *1355:D I *D sky130_fd_sc_hd__nand4_1
*I *1351:B I *D sky130_fd_sc_hd__nor2_1
*I *1349:C I *D sky130_fd_sc_hd__nor3_1
*I *1350:B I *D sky130_fd_sc_hd__and2_0
*I *1348:Y O *D sky130_fd_sc_hd__a2111oi_0
*CAP
1 *1355:D 0.00013108
2 *1351:B 4.23535e-05
3 *1349:C 0.000610989
4 *1350:B 0
5 *1348:Y 0.000699304
6 *564:33 0.000716231
7 *564:25 0.000819328
8 *564:16 0.00158682
9 *1349:C *1347:A1 0
10 *1349:C *581:10 0
11 *1349:C *584:23 0
12 *1349:C *752:12 0
13 *1349:C *769:17 0
14 *1349:C *769:38 0
15 *1351:B *1491:CLK 0
16 *1351:B *565:17 0
17 *1351:B *583:17 0
18 *1355:D *585:19 0
19 *564:16 *790:A 0
20 *564:16 *792:B1 0
21 *564:16 *793:A1 0
22 *564:16 *793:B1 0
23 *564:16 *580:50 0
24 *564:16 *583:55 0
25 *564:16 *584:46 0
26 *564:16 *585:19 0
27 *564:16 *586:35 0
28 *564:25 *1357:A2 0
29 *564:25 *1358:C 0
30 *564:25 *568:14 0
31 *564:25 *583:17 0
32 *564:25 *584:23 0
33 *564:25 *585:19 0
34 *564:25 *585:25 0
35 *564:25 *587:43 0
36 *564:33 *1357:A2 0
37 *564:33 *583:11 0
38 *564:33 *583:17 0
39 *792:A2 *564:16 0
40 *793:A2 *564:16 0
41 *799:A2 *1355:D 0
42 *799:A2 *564:16 0
43 *813:C *564:25 0
44 *1342:A1 *564:16 0
45 *1343:B1 *564:16 0
46 *1347:A3 *1349:C 0
47 *1349:A *1349:C 0
48 *1489:D *1349:C 0
49 *1490:D *1349:C 0
50 *156:21 *564:16 0
51 *156:21 *564:25 0
52 *167:11 *564:16 0
53 *168:31 *564:16 0
54 *556:12 *564:16 0
*RES
1 *1348:Y *564:16 29.8714 
2 *564:16 *564:25 20.3929 
3 *564:25 *1350:B 9.3 
4 *564:25 *564:33 1.375 
5 *564:33 *1349:C 31.8714 
6 *564:33 *1351:B 10.2464 
7 *564:16 *1355:D 16.6929 
*END

*D_NET *565 0.00207119
*CONN
*I *1354:A2 I *D sky130_fd_sc_hd__a21oi_1
*I *1353:B1 I *D sky130_fd_sc_hd__o22ai_1
*I *1352:B I *D sky130_fd_sc_hd__nor3_1
*I *1357:A2 I *D sky130_fd_sc_hd__a21oi_1
*I *1350:X O *D sky130_fd_sc_hd__and2_0
*CAP
1 *1354:A2 0.00018396
2 *1353:B1 0
3 *1352:B 0.000171193
4 *1357:A2 0.000183318
5 *1350:X 0
6 *565:30 0.00049948
7 *565:17 0.00066832
8 *565:4 0.000364924
9 *1352:B *592:173 0
10 *1354:A2 *584:16 0
11 *1354:A2 *592:377 0
12 *1357:A2 *583:11 0
13 *1357:A2 *584:23 0
14 *565:17 *1491:CLK 0
15 *565:17 *583:11 0
16 *565:30 *592:163 0
17 *565:30 *592:165 0
18 *565:30 *592:167 0
19 *565:30 *592:377 0
20 *1351:B *565:17 0
21 *1352:A *1352:B 0
22 *1353:A1 *1354:A2 0
23 *1353:A1 *565:30 0
24 *1491:D *1352:B 0
25 *1492:D *1354:A2 0
26 *559:26 *1352:B 0
27 *559:26 *565:30 0
28 *564:25 *1357:A2 0
29 *564:33 *1357:A2 0
*RES
1 *1350:X *565:4 9.3 
2 *565:4 *1357:A2 13.1571 
3 *565:4 *565:17 8.32143 
4 *565:17 *1352:B 17.6036 
5 *565:17 *565:30 11.6429 
6 *565:30 *1353:B1 9.3 
7 *565:30 *1354:A2 13.1393 
*END

*D_NET *566 0.000340877
*CONN
*I *1352:C I *D sky130_fd_sc_hd__nor3_1
*I *1351:Y O *D sky130_fd_sc_hd__nor2_1
*CAP
1 *1352:C 0.000170439
2 *1351:Y 0.000170439
3 *1352:C *1491:CLK 0
4 *1352:C *583:11 0
5 *1352:C *583:17 0
6 *1352:C *769:8 0
7 *559:26 *1352:C 0
*RES
1 *1351:Y *1352:C 31.3143 
*END

*D_NET *567 0.000300325
*CONN
*I *1354:B1 I *D sky130_fd_sc_hd__a21oi_1
*I *1353:Y O *D sky130_fd_sc_hd__o22ai_1
*CAP
1 *1354:B1 0.000150162
2 *1353:Y 0.000150162
3 *1353:A1 *1354:B1 0
4 *1353:A2 *1354:B1 0
5 *1492:D *1354:B1 0
*RES
1 *1353:Y *1354:B1 21.9393 
*END

*D_NET *568 0.000991243
*CONN
*I *1356:A I *D sky130_fd_sc_hd__clkinv_1
*I *1359:A2 I *D sky130_fd_sc_hd__a21o_1
*I *1361:A2 I *D sky130_fd_sc_hd__o21ai_0
*I *1362:C I *D sky130_fd_sc_hd__or3_1
*I *1355:Y O *D sky130_fd_sc_hd__nand4_1
*CAP
1 *1356:A 2.26741e-05
2 *1359:A2 0
3 *1361:A2 6.20329e-05
4 *1362:C 8.55626e-05
5 *1355:Y 9.77261e-05
6 *568:18 0.000260069
7 *568:14 0.000227626
8 *568:8 0.000235553
9 *1356:A *1360:A2 0
10 *1361:A2 *1362:A 0
11 *1361:A2 *1363:A1 0
12 *1362:C *1362:A 0
13 *1362:C *1363:A1 0
14 *1362:C *1363:A2 0
15 *568:8 *585:19 0
16 *568:8 *587:27 0
17 *568:14 *1360:A1 0
18 *568:14 *1360:A2 0
19 *568:14 *587:27 0
20 *568:18 *587:27 0
21 *799:A2 *568:8 0
22 *1361:A1 *1361:A2 0
23 *1361:A1 *1362:C 0
24 *1361:A1 *568:14 0
25 *1361:A1 *568:18 0
26 *1494:D *568:18 0
27 *564:25 *568:14 0
*RES
1 *1355:Y *568:8 20.55 
2 *568:8 *568:14 7.125 
3 *568:14 *568:18 7.05357 
4 *568:18 *1362:C 11.0857 
5 *568:18 *1361:A2 10.6571 
6 *568:14 *1359:A2 13.8 
7 *568:8 *1356:A 9.83571 
*END

*D_NET *569 0.000852018
*CONN
*I *1360:A2 I *D sky130_fd_sc_hd__a21oi_1
*I *1358:B I *D sky130_fd_sc_hd__nor3_1
*I *1356:Y O *D sky130_fd_sc_hd__clkinv_1
*CAP
1 *1360:A2 9.79692e-05
2 *1358:B 0.00032804
3 *1356:Y 0
4 *569:4 0.000426009
5 *1358:B *1358:C 0
6 *1358:B *1493:CLK 0
7 *1358:B *587:8 0
8 *1358:B *587:27 0
9 *1360:A2 *1360:A1 0
10 *1356:A *1360:A2 0
11 *568:14 *1360:A2 0
*RES
1 *1356:Y *569:4 9.3 
2 *569:4 *1358:B 25.4607 
3 *569:4 *1360:A2 11.4071 
*END

*D_NET *570 0.00110989
*CONN
*I *1358:C I *D sky130_fd_sc_hd__nor3_1
*I *1357:Y O *D sky130_fd_sc_hd__a21oi_1
*CAP
1 *1358:C 0.000554943
2 *1357:Y 0.000554943
3 *1358:C *1493:CLK 0
4 *1358:C *1493:RESET_B 0
5 *1358:C *583:29 0
6 *1358:C *584:31 0
7 *1358:B *1358:C 0
8 *1493:D *1358:C 0
9 *564:25 *1358:C 0
*RES
1 *1357:Y *1358:C 39.7071 
*END

*D_NET *571 0.000290913
*CONN
*I *1360:B1 I *D sky130_fd_sc_hd__a21oi_1
*I *1359:X O *D sky130_fd_sc_hd__a21o_1
*CAP
1 *1360:B1 0.000145456
2 *1359:X 0.000145456
3 *1360:B1 *1360:A1 0
4 *141:5 *1360:B1 0
5 *141:26 *1360:B1 0
*RES
1 *1359:X *1360:B1 21.5732 
*END

*D_NET *572 0.000452626
*CONN
*I *1363:A1 I *D sky130_fd_sc_hd__a21oi_1
*I *1361:Y O *D sky130_fd_sc_hd__o21ai_0
*CAP
1 *1363:A1 0.000226313
2 *1361:Y 0.000226313
3 *1363:A1 *1362:A 0
4 *1363:A1 *1363:A2 0
5 *1361:A1 *1363:A1 0
6 *1361:A2 *1363:A1 0
7 *1362:C *1363:A1 0
8 *1363:B1 *1363:A1 0
*RES
1 *1361:Y *1363:A1 23.3857 
*END

*D_NET *573 0.000320004
*CONN
*I *1363:A2 I *D sky130_fd_sc_hd__a21oi_1
*I *1362:X O *D sky130_fd_sc_hd__or3_1
*CAP
1 *1363:A2 0.000160002
2 *1362:X 0.000160002
3 *1363:A2 *1362:A 0
4 *1362:B *1363:A2 0
5 *1362:C *1363:A2 0
6 *1363:A1 *1363:A2 0
*RES
1 *1362:X *1363:A2 22.0643 
*END

*D_NET *574 0.000741064
*CONN
*I *1365:B1 I *D sky130_fd_sc_hd__a32o_1
*I *1364:Y O *D sky130_fd_sc_hd__nand2_1
*CAP
1 *1365:B1 0.000370532
2 *1364:Y 0.000370532
3 *1365:B1 *830:A1 0
4 *1365:B1 *577:12 0
5 *1365:B1 *592:132 0
6 *1365:B1 *771:40 0
7 *1365:B1 *771:45 0
8 *1365:A2 *1365:B1 0
*RES
1 *1364:Y *1365:B1 35.6268 
*END

*D_NET *575 0.00148864
*CONN
*I *1368:A2 I *D sky130_fd_sc_hd__a22o_1
*I *1367:B I *D sky130_fd_sc_hd__nand2_1
*I *1366:Y O *D sky130_fd_sc_hd__nor4b_1
*CAP
1 *1368:A2 0.000211908
2 *1367:B 0
3 *1366:Y 0.000532413
4 *575:11 0.000744322
5 *1368:A2 *804:B 0
6 *1368:A2 *1335:C 0
7 *1368:A2 *1368:B1 0
8 *1368:A2 *1506:CLK 0
9 *1368:A2 *705:53 0
10 *575:11 *804:B 0
11 *575:11 *805:A1 0
12 *1366:D_N *575:11 0
13 *1367:A *1368:A2 0
14 *160:10 *575:11 0
*RES
1 *1366:Y *575:11 20.5679 
2 *575:11 *1367:B 9.3 
3 *575:11 *1368:A2 22.8536 
*END

*D_NET *576 0.000169317
*CONN
*I *1368:B1 I *D sky130_fd_sc_hd__a22o_1
*I *1367:Y O *D sky130_fd_sc_hd__nand2_1
*CAP
1 *1368:B1 8.46584e-05
2 *1367:Y 8.46584e-05
3 *1368:B1 *1335:C 0
4 *1368:B1 *752:47 0
5 *1368:A2 *1368:B1 0
*RES
1 *1367:Y *1368:B1 29.475 
*END

*D_NET *577 0.00369066
*CONN
*I *811:B1 I *D sky130_fd_sc_hd__a21o_1
*I *1507:D I *D sky130_fd_sc_hd__dfrtp_1
*I *810:Y O *D sky130_fd_sc_hd__o21ai_0
*CAP
1 *811:B1 4.03882e-05
2 *1507:D 0.000310254
3 *810:Y 0.00149469
4 *577:12 0.00184533
5 *811:B1 *592:140 0
6 *1507:D *1509:CLK 0
7 *1507:D *592:140 0
8 *1507:D *752:87 0
9 *1507:D *771:45 0
10 *577:12 *801:A 0
11 *577:12 *830:A1 0
12 *577:12 *592:140 0
13 *577:12 *704:11 0
14 *577:12 *704:24 0
15 *577:12 *746:29 0
16 *577:12 *746:34 0
17 *577:12 *752:87 0
18 *577:12 *771:40 0
19 *1333:B1 *577:12 0
20 *1365:B1 *577:12 0
21 *1504:D *577:12 0
22 *163:9 *577:12 0
23 *554:13 *577:12 0
*RES
1 *810:Y *577:12 31.4642 
2 *577:12 *1507:D 20.7018 
3 *577:12 *811:B1 14.9161 
*END

*D_NET *578 0.00226483
*CONN
*I *1511:D I *D sky130_fd_sc_hd__dfrtp_1
*I *879:Y O *D sky130_fd_sc_hd__nand2_1
*CAP
1 *1511:D 0
2 *879:Y 0.00113241
3 *578:13 0.00113241
4 *578:13 *1166:A 0
5 *578:13 *1169:A 0
6 *578:13 *1171:A 0
7 *578:13 *1184:A 0
8 *578:13 *1432:RESET_B 0
9 *578:13 *1511:CLK 0
10 *578:13 *1511:RESET_B 0
11 *578:13 *603:842 0
12 *578:13 *687:8 0
13 *578:13 *699:8 0
14 *578:13 *699:19 0
15 *578:13 *763:11 0
16 *578:13 *763:27 0
17 *578:13 *763:71 0
18 *578:13 *764:10 0
19 *1185:A2 *578:13 0
20 *315:213 *578:13 0
21 *315:285 *578:13 0
*RES
1 *879:Y *578:13 43.8179 
2 *578:13 *1511:D 9.3 
*END

*D_NET *579 0.00330699
*CONN
*I *1510:D I *D sky130_fd_sc_hd__dfrtp_1
*I *877:Y O *D sky130_fd_sc_hd__nand3_1
*CAP
1 *1510:D 0.000143745
2 *877:Y 0.00150975
3 *579:12 0.00165349
4 *1510:D *1495:CLK 0
5 *1510:D *592:195 0
6 *579:12 *1180:A 0
7 *579:12 *1267:A 0
8 *579:12 *1374:RESET_B 0
9 *579:12 *1437:CLK 0
10 *579:12 *1467:CLK 0
11 *579:12 *1468:CLK 0
12 *579:12 *592:200 0
13 *579:12 *592:202 0
14 *579:12 *592:323 0
15 *579:12 *653:10 0
16 *579:12 *688:8 0
17 *579:12 *688:21 0
18 *579:12 *764:62 0
19 *579:12 *764:104 0
20 *853:B1 *579:12 0
21 *1178:B *579:12 0
22 *1180:B *579:12 0
23 *1182:A *579:12 0
24 *1272:A1 *579:12 0
25 *1272:B1 *579:12 0
26 *1275:A *579:12 0
27 *1372:D *579:12 0
28 *1436:D *579:12 0
29 *1437:D *579:12 0
30 *1464:D *579:12 0
31 *1466:D *579:12 0
32 *1467:D *579:12 0
33 *316:659 *579:12 0
34 *316:688 *579:12 0
*RES
1 *877:Y *579:12 47.9071 
2 *579:12 *1510:D 16.8 
*END

*D_NET *580 0.00337371
*CONN
*I *1345:A1 I *D sky130_fd_sc_hd__a21oi_1
*I *1347:A1 I *D sky130_fd_sc_hd__a31oi_1
*I *1344:A I *D sky130_fd_sc_hd__and3_1
*I *1339:A I *D sky130_fd_sc_hd__nor2_1
*I *795:A I *D sky130_fd_sc_hd__nand3_1
*I *788:A1 I *D sky130_fd_sc_hd__a21oi_1
*I *782:A I *D sky130_fd_sc_hd__clkinv_1
*I *789:A_N I *D sky130_fd_sc_hd__nand2b_1
*I *799:A1 I *D sky130_fd_sc_hd__a32oi_1
*I *1488:Q O *D sky130_fd_sc_hd__dfrtp_1
*CAP
1 *1345:A1 0
2 *1347:A1 0.000180109
3 *1344:A 3.08025e-05
4 *1339:A 2.0535e-05
5 *795:A 0.000147595
6 *788:A1 0
7 *782:A 0.000132243
8 *789:A_N 0
9 *799:A1 0.000137388
10 *1488:Q 0.000117709
11 *580:71 0.000253265
12 *580:50 0.00027342
13 *580:20 0.000247109
14 *580:19 0.000385709
15 *580:15 0.000292244
16 *580:13 0.00049883
17 *580:11 0.000518509
18 *580:10 0.000138244
19 *795:A *582:40 0
20 *1347:A1 *581:15 0
21 *1347:A1 *581:22 0
22 *580:10 *752:12 0
23 *580:13 *581:22 0
24 *580:13 *581:26 0
25 *580:50 *581:26 0
26 *580:71 *581:22 0
27 *791:B1 *795:A 0
28 *791:B1 *580:50 0
29 *796:A *799:A1 0
30 *799:A2 *799:A1 0
31 *799:B1 *799:A1 0
32 *813:C *795:A 0
33 *1339:B *1339:A 0
34 *1339:B *580:13 0
35 *1339:B *580:15 0
36 *1345:A2 *1344:A 0
37 *1345:A2 *580:11 0
38 *1347:A3 *1347:A1 0
39 *1348:C1 *782:A 0
40 *1348:C1 *799:A1 0
41 *1348:C1 *580:20 0
42 *1349:C *1347:A1 0
43 *1489:D *580:10 0
44 *156:21 *782:A 0
45 *156:21 *799:A1 0
46 *156:21 *580:20 0
47 *168:31 *782:A 0
48 *556:21 *580:13 0
49 *556:21 *580:71 0
50 *556:31 *1344:A 0
51 *556:31 *1347:A1 0
52 *556:31 *580:71 0
53 *564:16 *580:50 0
*RES
1 *1488:Q *580:10 20.8893 
2 *580:10 *580:11 0.428571 
3 *580:11 *580:13 9.57143 
4 *580:13 *580:15 0.535714 
5 *580:15 *580:19 7.5 
6 *580:19 *580:20 2.55357 
7 *580:20 *799:A1 16.8 
8 *580:20 *789:A_N 13.8 
9 *580:19 *782:A 16.8179 
10 *580:15 *580:50 11.8571 
11 *580:50 *788:A1 9.3 
12 *580:50 *795:A 12.4429 
13 *580:13 *1339:A 9.72857 
14 *580:11 *580:71 0.946429 
15 *580:71 *1344:A 10.0321 
16 *580:71 *1347:A1 13.1214 
17 *580:10 *1345:A1 9.3 
*END

*D_NET *581 0.00303806
*CONN
*I *1347:A2 I *D sky130_fd_sc_hd__a31oi_1
*I *1344:B I *D sky130_fd_sc_hd__and3_1
*I *1345:B1 I *D sky130_fd_sc_hd__a21oi_1
*I *794:A I *D sky130_fd_sc_hd__nand2_1
*I *789:B I *D sky130_fd_sc_hd__nand2b_1
*I *791:A1 I *D sky130_fd_sc_hd__o22ai_1
*I *1489:Q O *D sky130_fd_sc_hd__dfrtp_1
*CAP
1 *1347:A2 2.94948e-05
2 *1344:B 0
3 *1345:B1 6.20329e-05
4 *794:A 8.79156e-05
5 *789:B 0
6 *791:A1 9.23777e-05
7 *1489:Q 0.00024601
8 *581:42 0.000428732
9 *581:26 0.000740353
10 *581:22 0.000580808
11 *581:15 0.000353222
12 *581:10 0.000417111
13 *794:A *794:B 0
14 *1347:A2 *1347:B1 0
15 *581:10 *1347:B1 0
16 *581:10 *584:23 0
17 *581:22 *769:54 0
18 *581:26 *769:42 0
19 *581:26 *769:54 0
20 *581:42 *793:A1 0
21 *581:42 *794:B 0
22 *581:42 *582:11 0
23 *791:A2 *791:A1 0
24 *791:A2 *581:26 0
25 *799:A3 *581:42 0
26 *813:B *791:A1 0
27 *1347:A1 *581:15 0
28 *1347:A1 *581:22 0
29 *1349:C *581:10 0
30 *1490:D *581:10 0
31 *156:21 *581:42 0
32 *556:21 *581:26 0
33 *580:13 *581:22 0
34 *580:13 *581:26 0
35 *580:50 *581:26 0
36 *580:71 *581:22 0
*RES
1 *1489:Q *581:10 19.0857 
2 *581:10 *581:15 7.51786 
3 *581:15 *581:22 13.8571 
4 *581:22 *581:26 11.3304 
5 *581:26 *791:A1 15.8982 
6 *581:26 *581:42 12.9837 
7 *581:42 *789:B 9.3 
8 *581:42 *794:A 11.3804 
9 *581:22 *1345:B1 10.6571 
10 *581:15 *1344:B 9.3 
11 *581:10 *1347:A2 14.5321 
*END

*D_NET *582 0.0034249
*CONN
*I *1347:B1 I *D sky130_fd_sc_hd__a31oi_1
*I *788:B1 I *D sky130_fd_sc_hd__a21oi_1
*I *794:B I *D sky130_fd_sc_hd__nand2_1
*I *790:A I *D sky130_fd_sc_hd__lpflow_isobufsrc_1
*I *793:A1 I *D sky130_fd_sc_hd__a211o_1
*I *1490:Q O *D sky130_fd_sc_hd__dfrtp_1
*CAP
1 *1347:B1 0.000192699
2 *788:B1 6.84501e-06
3 *794:B 0.000171125
4 *790:A 1.07853e-05
5 *793:A1 0.000128012
6 *1490:Q 0.00030118
7 *582:40 0.000331609
8 *582:27 0.000164424
9 *582:11 0.000876175
10 *582:7 0.00124204
11 *793:A1 *793:C1 0
12 *582:11 *583:29 0
13 *582:40 *795:C 0
14 *791:B1 *788:B1 0
15 *791:B1 *794:B 0
16 *791:B1 *582:40 0
17 *793:A2 *793:A1 0
18 *794:A *794:B 0
19 *795:A *582:40 0
20 *798:B *793:A1 0
21 *799:A3 *793:A1 0
22 *799:A3 *582:11 0
23 *799:B1 *793:A1 0
24 *1347:A2 *1347:B1 0
25 *1490:D *1347:B1 0
26 *1490:D *582:11 0
27 *559:26 *1347:B1 0
28 *559:26 *582:11 0
29 *564:16 *790:A 0
30 *564:16 *793:A1 0
31 *581:10 *1347:B1 0
32 *581:42 *793:A1 0
33 *581:42 *794:B 0
34 *581:42 *582:11 0
*RES
1 *1490:Q *582:7 20.0857 
2 *582:7 *582:11 6.63176 
3 *582:11 *793:A1 18.7143 
4 *582:11 *582:27 3.41 
5 *582:27 *790:A 14.0768 
6 *582:27 *582:40 7.98214 
7 *582:40 *794:B 12.9339 
8 *582:40 *788:B1 9.58571 
9 *582:7 *1347:B1 18.175 
*END

*D_NET *583 0.00370387
*CONN
*I *1351:A I *D sky130_fd_sc_hd__nor2_1
*I *1350:A I *D sky130_fd_sc_hd__and2_0
*I *795:B I *D sky130_fd_sc_hd__nand3_1
*I *788:A2 I *D sky130_fd_sc_hd__a21oi_1
*I *793:C1 I *D sky130_fd_sc_hd__a211o_1
*I *790:SLEEP I *D sky130_fd_sc_hd__lpflow_isobufsrc_1
*I *1355:A I *D sky130_fd_sc_hd__nand4_1
*I *1491:Q O *D sky130_fd_sc_hd__dfrtp_1
*CAP
1 *1351:A 0
2 *1350:A 0
3 *795:B 5.07999e-05
4 *788:A2 5.24713e-05
5 *793:C1 9.58301e-05
6 *790:SLEEP 0
7 *1355:A 4.53482e-05
8 *1491:Q 0.000440647
9 *583:55 0.000188452
10 *583:40 9.58301e-05
11 *583:38 0.000398485
12 *583:29 0.000928581
13 *583:17 0.000768354
14 *583:11 0.000639072
15 *788:A2 *795:C 0
16 *1355:A *584:31 0
17 *1355:A *585:11 0
18 *583:11 *1491:CLK 0
19 *583:17 *1491:CLK 0
20 *583:29 *1357:B1 0
21 *583:29 *584:31 0
22 *583:29 *585:11 0
23 *583:29 *769:8 0
24 *583:38 *797:A 0
25 *583:38 *584:46 0
26 *583:38 *587:27 0
27 *583:55 *795:C 0
28 *791:B1 *583:55 0
29 *793:A1 *793:C1 0
30 *796:A *583:38 0
31 *796:SLEEP *583:38 0
32 *796:SLEEP *583:55 0
33 *798:B *793:C1 0
34 *799:B1 *793:C1 0
35 *813:C *583:38 0
36 *1351:B *583:17 0
37 *1352:C *583:11 0
38 *1352:C *583:17 0
39 *1357:A2 *583:11 0
40 *1358:C *583:29 0
41 *559:26 *583:17 0
42 *559:31 *583:29 0
43 *559:35 *583:29 0
44 *564:16 *583:55 0
45 *564:25 *583:17 0
46 *564:33 *583:11 0
47 *564:33 *583:17 0
48 *565:17 *583:11 0
49 *582:11 *583:29 0
*RES
1 *1491:Q *583:11 18.6214 
2 *583:11 *583:17 13.1429 
3 *583:17 *583:29 22.1636 
4 *583:29 *1355:A 10.2464 
5 *583:29 *583:38 11.9107 
6 *583:38 *583:40 4.5 
7 *583:40 *790:SLEEP 9.3 
8 *583:40 *793:C1 11.5143 
9 *583:38 *583:55 2.09821 
10 *583:55 *788:A2 15.0232 
11 *583:55 *795:B 15.0232 
12 *583:17 *1350:A 9.3 
13 *583:11 *1351:A 9.3 
*END

*D_NET *584 0.00491152
*CONN
*I *1354:A1 I *D sky130_fd_sc_hd__a21oi_1
*I *1353:B2 I *D sky130_fd_sc_hd__o22ai_1
*I *1357:A1 I *D sky130_fd_sc_hd__a21oi_1
*I *795:C I *D sky130_fd_sc_hd__nand3_1
*I *793:B1 I *D sky130_fd_sc_hd__a211o_1
*I *1355:C I *D sky130_fd_sc_hd__nand4_1
*I *1492:Q O *D sky130_fd_sc_hd__dfrtp_1
*CAP
1 *1354:A1 0
2 *1353:B2 0
3 *1357:A1 0
4 *795:C 0.000179324
5 *793:B1 3.86284e-05
6 *1355:C 8.94129e-05
7 *1492:Q 0.000391734
8 *584:46 0.000509528
9 *584:31 0.000971438
10 *584:23 0.00131233
11 *584:16 0.000874637
12 *584:9 0.000544492
13 *1355:C *585:11 0
14 *584:9 *1506:CLK 0
15 *584:9 *1509:CLK 0
16 *584:9 *593:11 0
17 *584:16 *592:161 0
18 *584:23 *1489:RESET_B 0
19 *584:23 *592:382 0
20 *584:23 *752:12 0
21 *584:31 *585:11 0
22 *584:31 *752:12 0
23 *584:46 *792:B1 0
24 *584:46 *797:A 0
25 *584:46 *585:30 0
26 *584:46 *587:27 0
27 *788:A2 *795:C 0
28 *796:A *584:46 0
29 *1349:C *584:23 0
30 *1353:A1 *584:23 0
31 *1353:A2 *584:23 0
32 *1354:A2 *584:16 0
33 *1355:A *584:31 0
34 *1357:A2 *584:23 0
35 *1358:C *584:31 0
36 *1489:D *584:23 0
37 *1492:D *584:16 0
38 *559:26 *584:16 0
39 *564:16 *793:B1 0
40 *564:16 *584:46 0
41 *564:25 *584:23 0
42 *581:10 *584:23 0
43 *582:40 *795:C 0
44 *583:29 *584:31 0
45 *583:38 *584:46 0
46 *583:55 *795:C 0
*RES
1 *1492:Q *584:9 26.8179 
2 *584:9 *584:16 12.2143 
3 *584:16 *584:23 24.6786 
4 *584:23 *584:31 21.5536 
5 *584:31 *1355:C 11.2286 
6 *584:31 *584:46 11.1518 
7 *584:46 *793:B1 14.9161 
8 *584:46 *795:C 17.8089 
9 *584:23 *1357:A1 9.3 
10 *584:16 *1353:B2 9.3 
11 *584:9 *1354:A1 9.3 
*END

*D_NET *585 0.00250807
*CONN
*I *1357:B1 I *D sky130_fd_sc_hd__a21oi_1
*I *1355:B I *D sky130_fd_sc_hd__nand4_1
*I *812:B I *D sky130_fd_sc_hd__nand2_1
*I *792:A1 I *D sky130_fd_sc_hd__a211o_1
*I *797:B I *D sky130_fd_sc_hd__nor2_1
*I *800:A2 I *D sky130_fd_sc_hd__a21oi_1
*I *1493:Q O *D sky130_fd_sc_hd__dfrtp_1
*CAP
1 *1357:B1 0.000181771
2 *1355:B 0
3 *812:B 0
4 *792:A1 0.000118504
5 *797:B 0
6 *800:A2 0
7 *1493:Q 0.000104338
8 *585:30 0.000217607
9 *585:25 0.000121777
10 *585:19 0.000279082
11 *585:11 0.000727644
12 *585:8 0.000757345
13 *792:A1 *792:C1 0
14 *1357:B1 *752:12 0
15 *1357:B1 *769:8 0
16 *585:8 *752:12 0
17 *585:8 *769:8 0
18 *585:19 *792:B1 0
19 *585:19 *800:B1 0
20 *585:19 *587:27 0
21 *585:30 *792:B1 0
22 *792:A2 *792:A1 0
23 *799:A2 *585:19 0
24 *1355:A *585:11 0
25 *1355:C *585:11 0
26 *1355:D *585:19 0
27 *564:16 *585:19 0
28 *564:25 *585:19 0
29 *564:25 *585:25 0
30 *568:8 *585:19 0
31 *583:29 *1357:B1 0
32 *583:29 *585:11 0
33 *584:31 *585:11 0
34 *584:46 *585:30 0
*RES
1 *1493:Q *585:8 16.0857 
2 *585:8 *585:11 14.3973 
3 *585:11 *585:19 14.5491 
4 *585:19 *800:A2 9.3 
5 *585:19 *585:25 0.535714 
6 *585:25 *585:30 11.25 
7 *585:30 *797:B 9.3 
8 *585:30 *792:A1 11.925 
9 *585:25 *812:B 9.3 
10 *585:11 *1355:B 9.3 
11 *585:8 *1357:B1 17.9071 
*END

*D_NET *586 0.00451905
*CONN
*I *800:A1 I *D sky130_fd_sc_hd__a21oi_1
*I *813:A I *D sky130_fd_sc_hd__nor3_1
*I *798:A I *D sky130_fd_sc_hd__nand4_1
*I *792:C1 I *D sky130_fd_sc_hd__a211o_1
*I *783:A I *D sky130_fd_sc_hd__clkinv_1
*I *1360:A1 I *D sky130_fd_sc_hd__a21oi_1
*I *1494:Q O *D sky130_fd_sc_hd__dfrtp_1
*CAP
1 *800:A1 0
2 *813:A 0.000203489
3 *798:A 0
4 *792:C1 5.73269e-05
5 *783:A 0
6 *1360:A1 0.000281073
7 *1494:Q 0.000710353
8 *586:49 0.000696506
9 *586:35 0.000595962
10 *586:30 0.000514265
11 *586:10 0.000281073
12 *586:8 0.001179
13 *813:A *752:12 0
14 *813:A *769:42 0
15 *586:8 *1494:CLK 0
16 *586:30 *800:B1 0
17 *586:49 *752:12 0
18 *792:A1 *792:C1 0
19 *792:A2 *792:C1 0
20 *796:A *586:49 0
21 *799:A2 *586:30 0
22 *813:B *813:A 0
23 *813:C *586:49 0
24 *1359:B1 *586:8 0
25 *1360:A2 *1360:A1 0
26 *1360:B1 *1360:A1 0
27 *1362:B *586:8 0
28 *1362:B *586:30 0
29 *1363:B1 *586:8 0
30 *1494:D *586:8 0
31 *1495:D *586:8 0
32 *141:5 *1360:A1 0
33 *141:26 *1360:A1 0
34 *152:8 *813:A 0
35 *152:8 *586:49 0
36 *153:8 *586:49 0
37 *156:21 *586:30 0
38 *564:16 *586:35 0
39 *568:14 *1360:A1 0
*RES
1 *1494:Q *586:8 28.9786 
2 *586:8 *586:10 4.5 
3 *586:10 *1360:A1 15.2286 
4 *586:10 *783:A 9.3 
5 *586:8 *586:30 14.7321 
6 *586:30 *586:35 10.0357 
7 *586:35 *792:C1 10.6929 
8 *586:35 *586:49 15.1786 
9 *586:49 *798:A 13.8 
10 *586:49 *813:A 18.2286 
11 *586:30 *800:A1 9.3 
*END

*D_NET *587 0.00238642
*CONN
*I *800:B1 I *D sky130_fd_sc_hd__a21oi_1
*I *812:A I *D sky130_fd_sc_hd__nand2_1
*I *797:A I *D sky130_fd_sc_hd__nor2_1
*I *792:B1 I *D sky130_fd_sc_hd__a211o_1
*I *1362:A I *D sky130_fd_sc_hd__or3_1
*I *1361:B1 I *D sky130_fd_sc_hd__o21ai_0
*I *1495:Q O *D sky130_fd_sc_hd__dfrtp_1
*CAP
1 *800:B1 0.000134537
2 *812:A 0
3 *797:A 9.91025e-05
4 *792:B1 0.000170283
5 *1362:A 0.000180537
6 *1361:B1 0
7 *1495:Q 0.000238048
8 *587:43 0.000307447
9 *587:27 0.000540986
10 *587:10 0.000180537
11 *587:8 0.000534942
12 *587:8 *1493:CLK 0
13 *587:8 *1494:RESET_B 0
14 *587:8 *1495:CLK 0
15 *587:27 *1493:CLK 0
16 *796:A *797:A 0
17 *1358:B *587:8 0
18 *1358:B *587:27 0
19 *1361:A2 *1362:A 0
20 *1362:C *1362:A 0
21 *1363:A1 *1362:A 0
22 *1363:A2 *1362:A 0
23 *1494:D *587:8 0
24 *1494:D *587:27 0
25 *564:16 *792:B1 0
26 *564:25 *587:43 0
27 *568:8 *587:27 0
28 *568:14 *587:27 0
29 *568:18 *587:27 0
30 *583:38 *797:A 0
31 *583:38 *587:27 0
32 *584:46 *792:B1 0
33 *584:46 *797:A 0
34 *584:46 *587:27 0
35 *585:19 *792:B1 0
36 *585:19 *800:B1 0
37 *585:19 *587:27 0
38 *585:30 *792:B1 0
39 *586:30 *800:B1 0
*RES
1 *1495:Q *587:8 19.1214 
2 *587:8 *587:10 4.5 
3 *587:10 *1361:B1 9.3 
4 *587:10 *1362:A 13.2821 
5 *587:8 *587:27 6.80357 
6 *587:27 *792:B1 17.7286 
7 *587:27 *587:43 6.17857 
8 *587:43 *797:A 20.55 
9 *587:43 *812:A 9.3 
10 *587:43 *800:B1 12.3179 
*END

*D_NET *588 0.00985788
*CONN
*P clk I
*I *1826:A I *D sky130_fd_sc_hd__clkbuf_16
*CAP
1 clk 0.00321436
2 *1826:A 0
3 *588:14 0.00171458
4 *588:10 0.00492894
5 *588:10 uo_out[0] 0
6 *588:10 *822:A 0
7 *588:10 *880:A_N 0
8 *588:10 *592:13 0
9 *588:10 *723:11 0
10 *588:10 *723:40 0
11 *588:10 *748:28 0
12 *588:14 *907:C1 0
13 *588:14 *934:B2 0
14 *588:14 *948:B2 0
15 *588:14 *949:B2 0
16 *588:14 *1005:B 0
17 *588:14 *1009:B 0
18 *588:14 *1331:A 0
19 *588:14 *660:52 0
20 *588:14 *700:6 0
21 *588:14 *745:9 0
22 *934:C1 *588:14 0
23 *948:A2 *588:14 0
24 *948:C1 *588:14 0
25 *995:B1 *588:10 0
26 *173:55 *588:10 0
27 *173:67 *588:10 0
28 *234:63 *588:14 0
29 *278:11 *588:14 0
30 *315:53 *588:14 0
*RES
1 clk *588:10 18.5606 
2 *588:10 *588:14 43.2589 
3 *588:14 *1826:A 9.3 
*END

*D_NET *590 0.00180116
*CONN
*I *807:B I *D sky130_fd_sc_hd__nor3_1
*I *1368:B2 I *D sky130_fd_sc_hd__a22o_1
*I *1506:Q O *D sky130_fd_sc_hd__dfrtp_1
*CAP
1 *807:B 0.00014075
2 *1368:B2 0.000651131
3 *1506:Q 0.000108698
4 *590:12 0.00090058
5 *1368:B2 *705:53 0
6 *590:12 uio_oe[0] 0
7 *590:12 *1506:RESET_B 0
8 *590:12 *592:132 0
9 *807:C *807:B 0
10 *1506:D *1368:B2 0
*RES
1 *1506:Q *590:12 20.9071 
2 *590:12 *1368:B2 22.8893 
3 *590:12 *807:B 12.3 
*END

*D_NET *591 0.000672889
*CONN
*I *1370:C I *D sky130_fd_sc_hd__or3_1
*I *1507:Q O *D sky130_fd_sc_hd__dfrtp_1
*CAP
1 *1370:C 0.000336445
2 *1507:Q 0.000336445
3 *1370:C *1509:RESET_B 0
4 *1509:D *1370:C 0
*RES
1 *1507:Q *1370:C 34.975 
*END

*D_NET *592 0.0362141
*CONN
*P rst_n I
*I *864:B I *D sky130_fd_sc_hd__and2_0
*I *863:A I *D sky130_fd_sc_hd__nand2_1
*I *865:A1 I *D sky130_fd_sc_hd__a32oi_1
*I *978:B1 I *D sky130_fd_sc_hd__o21ai_0
*I *999:B I *D sky130_fd_sc_hd__and2_0
*I *876:A I *D sky130_fd_sc_hd__lpflow_isobufsrc_1
*I *1505:RESET_B I *D sky130_fd_sc_hd__dfrtp_1
*I *1500:RESET_B I *D sky130_fd_sc_hd__dfrtp_1
*I *1501:SET_B I *D sky130_fd_sc_hd__dfstp_2
*I *1504:RESET_B I *D sky130_fd_sc_hd__dfrtp_1
*I *1489:RESET_B I *D sky130_fd_sc_hd__dfrtp_1
*I *1502:RESET_B I *D sky130_fd_sc_hd__dfrtp_1
*I *1503:RESET_B I *D sky130_fd_sc_hd__dfrtp_1
*I *1488:RESET_B I *D sky130_fd_sc_hd__dfrtp_1
*I *1490:RESET_B I *D sky130_fd_sc_hd__dfrtp_1
*I *1492:RESET_B I *D sky130_fd_sc_hd__dfrtp_1
*I *1491:RESET_B I *D sky130_fd_sc_hd__dfrtp_1
*I *1493:RESET_B I *D sky130_fd_sc_hd__dfrtp_1
*I *1510:RESET_B I *D sky130_fd_sc_hd__dfrtp_1
*I *1494:RESET_B I *D sky130_fd_sc_hd__dfrtp_1
*I *1495:RESET_B I *D sky130_fd_sc_hd__dfrtp_1
*I *1373:RESET_B I *D sky130_fd_sc_hd__dfrtp_1
*I *1371:SET_B I *D sky130_fd_sc_hd__dfstp_2
*I *1377:RESET_B I *D sky130_fd_sc_hd__dfrtp_1
*I *1512:RESET_B I *D sky130_fd_sc_hd__dfrtp_1
*I *1378:RESET_B I *D sky130_fd_sc_hd__dfrtp_1
*I *1376:RESET_B I *D sky130_fd_sc_hd__dfrtp_1
*I *1375:RESET_B I *D sky130_fd_sc_hd__dfrtp_1
*I *1379:RESET_B I *D sky130_fd_sc_hd__dfrtp_1
*I *1382:RESET_B I *D sky130_fd_sc_hd__dfrtp_1
*I *1380:RESET_B I *D sky130_fd_sc_hd__dfrtp_1
*I *1381:RESET_B I *D sky130_fd_sc_hd__dfrtp_1
*I *1372:RESET_B I *D sky130_fd_sc_hd__dfrtp_1
*I *1374:RESET_B I *D sky130_fd_sc_hd__dfrtp_1
*I *1511:RESET_B I *D sky130_fd_sc_hd__dfrtp_1
*I *1507:RESET_B I *D sky130_fd_sc_hd__dfrtp_1
*I *1509:RESET_B I *D sky130_fd_sc_hd__dfrtp_1
*I *1506:RESET_B I *D sky130_fd_sc_hd__dfrtp_1
*I *821:B I *D sky130_fd_sc_hd__nand2b_1
*I *823:A I *D sky130_fd_sc_hd__lpflow_isobufsrc_1
*I *872:A I *D sky130_fd_sc_hd__nand2_1
*I *874:A1 I *D sky130_fd_sc_hd__a32oi_1
*CAP
1 rst_n 0.000787097
2 *864:B 0
3 *863:A 0.00032578
4 *865:A1 0
5 *978:B1 2.82757e-05
6 *999:B 0.000109701
7 *876:A 0
8 *1505:RESET_B 1.55082e-05
9 *1500:RESET_B 1.72195e-05
10 *1501:SET_B 0.00016428
11 *1504:RESET_B 0
12 *1489:RESET_B 3.43213e-05
13 *1502:RESET_B 0.000349812
14 *1503:RESET_B 0.000845124
15 *1488:RESET_B 6.20329e-05
16 *1490:RESET_B 0
17 *1492:RESET_B 0.00016428
18 *1491:RESET_B 2.35958e-05
19 *1493:RESET_B 0.000379893
20 *1510:RESET_B 3.18721e-05
21 *1494:RESET_B 0.000162811
22 *1495:RESET_B 6.20329e-05
23 *1373:RESET_B 0
24 *1371:SET_B 0
25 *1377:RESET_B 1.64815e-05
26 *1512:RESET_B 0.00020607
27 *1378:RESET_B 0.000438888
28 *1376:RESET_B 5.89896e-05
29 *1375:RESET_B 0.000316673
30 *1379:RESET_B 0.000152586
31 *1382:RESET_B 4.23535e-05
32 *1380:RESET_B 0
33 *1381:RESET_B 0.000114714
34 *1372:RESET_B 0
35 *1374:RESET_B 0.000219343
36 *1511:RESET_B 0.000426548
37 *1507:RESET_B 0
38 *1509:RESET_B 0.000193432
39 *1506:RESET_B 0.000123398
40 *821:B 0
41 *823:A 0.000105788
42 *872:A 0.000311034
43 *874:A1 0.000124066
44 *592:382 0.00116405
45 *592:377 0.000722739
46 *592:323 0.000254339
47 *592:284 0.000594227
48 *592:275 0.000659755
49 *592:271 0.000529846
50 *592:262 0.000856686
51 *592:254 0.000911664
52 *592:228 0.000293649
53 *592:222 0.000626665
54 *592:220 0.000929106
55 *592:218 0.000435689
56 *592:202 0.00027558
57 *592:200 0.00177381
58 *592:195 0.00155032
59 *592:191 0.000316368
60 *592:189 0.000995944
61 *592:173 0.00159911
62 *592:167 0.000720814
63 *592:165 0.000386474
64 *592:163 0.000219441
65 *592:161 0.000730782
66 *592:142 0.000201494
67 *592:140 0.00100515
68 *592:134 0.000461869
69 *592:132 0.000585505
70 *592:121 0.000664101
71 *592:112 0.000588514
72 *592:102 0.000847686
73 *592:94 0.000586491
74 *592:85 0.00104594
75 *592:80 0.00169379
76 *592:68 0.00124903
77 *592:57 0.000937704
78 *592:42 0.000771715
79 *592:34 0.000349794
80 *592:28 0.000564488
81 *592:14 0.000788606
82 *592:13 0.000911163
83 *823:A *595:6 0
84 *823:A *596:24 0
85 *863:A *860:A 0
86 *863:A *981:A1 0
87 *863:A *597:12 0
88 *863:A *723:11 0
89 *863:A *723:17 0
90 *872:A *865:A2 0
91 *872:A *874:A2 0
92 *872:A *1497:CLK 0
93 *872:A *598:24 0
94 *872:A *779:20 0
95 *874:A1 *874:A2 0
96 *999:B *876:SLEEP 0
97 *1374:RESET_B *868:A 0
98 *1374:RESET_B *710:29 0
99 *1375:RESET_B *1375:CLK 0
100 *1375:RESET_B *715:10 0
101 *1378:RESET_B *1378:CLK 0
102 *1378:RESET_B *713:13 0
103 *1378:RESET_B *714:8 0
104 *1379:RESET_B *1379:CLK 0
105 *1379:RESET_B *764:22 0
106 *1382:RESET_B *720:11 0
107 *1488:RESET_B *769:54 0
108 *1492:RESET_B *1506:CLK 0
109 *1493:RESET_B *752:12 0
110 *1494:RESET_B *1493:CLK 0
111 *1494:RESET_B *768:46 0
112 *1495:RESET_B *1495:CLK 0
113 *1501:SET_B *771:32 0
114 *1502:RESET_B *805:A2 0
115 *1502:RESET_B *808:A 0
116 *1502:RESET_B *809:A2 0
117 *1502:RESET_B *820:A3 0
118 *1502:RESET_B *705:5 0
119 *1502:RESET_B *705:32 0
120 *1503:RESET_B *805:A1 0
121 *1503:RESET_B *752:12 0
122 *1509:RESET_B *1509:CLK 0
123 *1511:RESET_B *768:12 0
124 *1512:RESET_B *767:28 0
125 *592:13 *721:19 0
126 *592:13 *723:11 0
127 *592:28 *596:11 0
128 *592:34 *865:A2 0
129 *592:57 *1497:CLK 0
130 *592:57 *723:40 0
131 *592:80 *1496:CLK 0
132 *592:80 *723:40 0
133 *592:80 *723:53 0
134 *592:80 *746:9 0
135 *592:80 *748:28 0
136 *592:85 *876:SLEEP 0
137 *592:85 *745:9 0
138 *592:85 *745:14 0
139 *592:85 *746:9 0
140 *592:85 *748:28 0
141 *592:102 *806:A 0
142 *592:112 *751:17 0
143 *592:121 uio_out[7] 0
144 *592:121 *1500:CLK 0
145 *592:132 uio_oe[0] 0
146 *592:132 uio_out[7] 0
147 *592:132 *752:98 0
148 *592:132 *771:40 0
149 *592:134 *752:98 0
150 *592:134 *771:40 0
151 *592:140 *811:A1 0
152 *592:140 *1509:CLK 0
153 *592:140 *752:98 0
154 *592:173 *1259:A 0
155 *592:173 *1473:CLK 0
156 *592:173 *1474:RESET_B 0
157 *592:173 *603:947 0
158 *592:173 *768:12 0
159 *592:200 *1436:RESET_B 0
160 *592:200 *1437:RESET_B 0
161 *592:200 *603:907 0
162 *592:200 *603:909 0
163 *592:200 *654:19 0
164 *592:200 *688:8 0
165 *592:200 *688:21 0
166 *592:200 *768:33 0
167 *592:222 *711:10 0
168 *592:228 *719:8 0
169 *592:254 *710:29 0
170 *592:262 *845:A 0
171 *592:262 *710:29 0
172 *592:262 *764:22 0
173 *592:271 *1377:CLK 0
174 *592:275 *715:10 0
175 *592:382 *1489:CLK 0
176 *592:382 *752:12 0
177 *592:382 *769:42 0
178 *592:382 *769:54 0
179 *807:C *1500:RESET_B 0
180 *807:C *592:112 0
181 *807:C *592:132 0
182 *811:B1 *592:140 0
183 *827:A1 *823:A 0
184 *827:A1 *592:68 0
185 *847:A2 *592:222 0
186 *847:B1 *1374:RESET_B 0
187 *847:C1 *1374:RESET_B 0
188 *848:A *592:222 0
189 *854:A2 *592:222 0
190 *855:B *592:222 0
191 *862:B *863:A 0
192 *865:A3 *863:A 0
193 *866:B1 *592:28 0
194 *875:A1 *863:A 0
195 *875:B1 *863:A 0
196 *879:B *592:254 0
197 *879:B *592:262 0
198 *973:A *1381:RESET_B 0
199 *998:B1 *592:80 0
200 *1185:B1 *1511:RESET_B 0
201 *1260:A1 *1511:RESET_B 0
202 *1260:A1 *592:189 0
203 *1260:A2 *592:173 0
204 *1260:A2 *592:189 0
205 *1263:A *592:200 0
206 *1271:B *592:200 0
207 *1273:B *592:200 0
208 *1333:A2 *1502:RESET_B 0
209 *1333:A2 *1503:RESET_B 0
210 *1333:B1 *1503:RESET_B 0
211 *1338:A *1503:RESET_B 0
212 *1346:C *592:382 0
213 *1352:B *592:173 0
214 *1353:A1 *1489:RESET_B 0
215 *1353:A1 *592:377 0
216 *1354:A2 *592:377 0
217 *1358:A *1493:RESET_B 0
218 *1358:C *1493:RESET_B 0
219 *1365:B1 *592:132 0
220 *1366:A *1502:RESET_B 0
221 *1366:A *1503:RESET_B 0
222 *1370:C *1509:RESET_B 0
223 *1378:D *1376:RESET_B 0
224 *1378:D *1378:RESET_B 0
225 *1379:D *1379:RESET_B 0
226 *1380:D *1381:RESET_B 0
227 *1389:D *592:80 0
228 *1465:D *592:200 0
229 *1473:D *1511:RESET_B 0
230 *1473:D *592:173 0
231 *1474:D *592:173 0
232 *1492:D *1492:RESET_B 0
233 *1492:D *592:163 0
234 *1492:D *592:165 0
235 *1500:D *1506:RESET_B 0
236 *1500:D *592:121 0
237 *1500:D *592:132 0
238 *1501:D *1501:SET_B 0
239 *1507:D *592:140 0
240 *1509:D *1509:RESET_B 0
241 *1510:D *592:195 0
242 *163:9 *592:132 0
243 *168:45 *1488:RESET_B 0
244 *173:6 *592:80 0
245 *173:55 *592:57 0
246 *176:12 *592:68 0
247 *181:6 *1376:RESET_B 0
248 *181:6 *592:284 0
249 *181:40 *592:222 0
250 *182:12 *592:262 0
251 *182:17 *592:262 0
252 *188:15 *1381:RESET_B 0
253 *188:15 *592:222 0
254 *188:15 *592:228 0
255 *189:16 *1374:RESET_B 0
256 *192:9 *1379:RESET_B 0
257 *192:9 *592:262 0
258 *199:14 *1374:RESET_B 0
259 *200:14 *592:254 0
260 *200:14 *592:262 0
261 *203:18 *592:14 0
262 *203:18 *592:28 0
263 *205:10 *863:A 0
264 *206:9 *874:A1 0
265 *206:9 *592:34 0
266 *210:13 *863:A 0
267 *210:13 *592:14 0
268 *210:13 *592:28 0
269 *210:21 *872:A 0
270 *210:21 *592:34 0
271 *210:21 *592:57 0
272 *210:21 *592:80 0
273 *316:567 *1511:RESET_B 0
274 *316:574 *1511:RESET_B 0
275 *316:659 *592:200 0
276 *316:688 *592:200 0
277 *360:528 *1511:RESET_B 0
278 *551:8 *1502:RESET_B 0
279 *551:8 *1503:RESET_B 0
280 *559:26 *592:161 0
281 *559:26 *592:173 0
282 *559:31 *592:173 0
283 *565:30 *592:163 0
284 *565:30 *592:165 0
285 *565:30 *592:167 0
286 *565:30 *592:377 0
287 *577:12 *592:140 0
288 *578:13 *1511:RESET_B 0
289 *579:12 *1374:RESET_B 0
290 *579:12 *592:200 0
291 *579:12 *592:202 0
292 *579:12 *592:323 0
293 *584:16 *592:161 0
294 *584:23 *1489:RESET_B 0
295 *584:23 *592:382 0
296 *587:8 *1494:RESET_B 0
297 *588:10 *592:13 0
298 *590:12 *1506:RESET_B 0
299 *590:12 *592:132 0
*RES
1 rst_n *592:13 15.0114 
2 *592:13 *592:14 2.58929 
3 *592:14 *592:28 16.7857 
4 *592:28 *592:34 13.8571 
5 *592:34 *874:A1 11.8893 
6 *592:34 *592:42 4.5 
7 *592:42 *872:A 20.7464 
8 *592:42 *592:57 10.2624 
9 *592:57 *823:A 16.2018 
10 *592:57 *592:68 12.5 
11 *592:68 *821:B 9.3 
12 *592:68 *592:80 13.6324 
13 *592:80 *592:85 6.47232 
14 *592:85 *592:94 7.76786 
15 *592:94 *592:102 9.32143 
16 *592:102 *592:112 17.9643 
17 *592:112 *592:121 8.375 
18 *592:121 *1506:RESET_B 7.15179 
19 *592:121 *592:132 8.32143 
20 *592:132 *592:134 1.33929 
21 *592:134 *592:140 9.24107 
22 *592:140 *592:142 0.276786 
23 *592:142 *1509:RESET_B 8.66964 
24 *592:142 *1507:RESET_B 4.5 
25 *592:140 *592:161 9.46522 
26 *592:161 *592:163 1.33929 
27 *592:163 *592:165 3.76786 
28 *592:165 *592:167 1.33929 
29 *592:167 *592:173 14.5536 
30 *592:173 *1511:RESET_B 13.8839 
31 *592:173 *592:189 15.7143 
32 *592:189 *592:191 1.76786 
33 *592:191 *592:195 8.73214 
34 *592:195 *592:200 29.9286 
35 *592:200 *592:202 1.33929 
36 *592:202 *1374:RESET_B 9.48214 
37 *592:202 *1372:RESET_B 4.5 
38 *592:200 *592:218 17.4464 
39 *592:218 *592:220 0.883929 
40 *592:220 *592:222 9.08036 
41 *592:222 *592:228 4.125 
42 *592:228 *1381:RESET_B 7.02679 
43 *592:228 *1380:RESET_B 4.5 
44 *592:222 *1382:RESET_B 5.38393 
45 *592:220 *592:254 10.8696 
46 *592:254 *592:262 13.9244 
47 *592:262 *1379:RESET_B 7.96429 
48 *592:262 *592:271 10.375 
49 *592:271 *592:275 5.07143 
50 *592:275 *1375:RESET_B 4.59821 
51 *1375:RESET_B *592:284 6.75 
52 *592:284 *1376:RESET_B 5.83929 
53 *592:284 *1378:RESET_B 22.7679 
54 *592:275 *1512:RESET_B 13.6786 
55 *592:271 *1377:RESET_B 0.473214 
56 *592:254 *1371:SET_B 4.5 
57 *592:218 *1373:RESET_B 4.5 
58 *592:195 *592:323 0.732143 
59 *592:323 *1495:RESET_B 5.79464 
60 *592:323 *1494:RESET_B 8.19643 
61 *592:191 *1510:RESET_B 0.901786 
62 *592:189 *1493:RESET_B 17.625 
63 *592:167 *1491:RESET_B 5.03571 
64 *592:165 *1492:RESET_B 7.99107 
65 *592:163 *1490:RESET_B 4.5 
66 *592:161 *592:377 6.26786 
67 *592:377 *592:382 17.6071 
68 *592:382 *1488:RESET_B 5.79464 
69 *592:382 *1503:RESET_B 15.6339 
70 *1503:RESET_B *1502:RESET_B 16.6429 
71 *592:377 *1489:RESET_B 0.901786 
72 *592:134 *1504:RESET_B 4.5 
73 *592:132 *1501:SET_B 7.99107 
74 *592:112 *1500:RESET_B 0.473214 
75 *592:102 *1505:RESET_B 0.473214 
76 *592:94 *876:A 9.3 
77 *592:85 *999:B 16.3536 
78 *592:80 *978:B1 17.7904 
79 *592:28 *865:A1 9.3 
80 *592:14 *863:A 26.0143 
81 *592:13 *864:B 9.3 
*END

*D_NET *593 0.00272899
*CONN
*I *1370:B I *D sky130_fd_sc_hd__or3_1
*I *1511:Q O *D sky130_fd_sc_hd__dfrtp_1
*CAP
1 *1370:B 0
2 *1511:Q 0.0013645
3 *593:11 0.0013645
4 *593:11 *1288:A 0
5 *593:11 *1291:A 0
6 *593:11 *1506:CLK 0
7 *593:11 *690:16 0
8 *593:11 *770:10 0
9 *1256:B *593:11 0
10 *1259:B *593:11 0
11 *1288:B *593:11 0
12 *1293:A *593:11 0
13 *1472:D *593:11 0
14 *316:561 *593:11 0
15 *316:730 *593:11 0
16 *316:733 *593:11 0
17 *584:9 *593:11 0
*RES
1 *1511:Q *593:11 48.6214 
2 *593:11 *1370:B 9.3 
*END

*D_NET *594 0.000330272
*CONN
*I *787:A I *D sky130_fd_sc_hd__lpflow_isobufsrc_1
*I *786:SLEEP I *D sky130_fd_sc_hd__lpflow_isobufsrc_1
*I *1390:Q O *D sky130_fd_sc_hd__dfxtp_1
*CAP
1 *787:A 6.20329e-05
2 *786:SLEEP 0
3 *1390:Q 0.000103103
4 *594:9 0.000165136
5 *787:A *721:26 0
6 *594:9 *721:26 0
*RES
1 *1390:Q *594:9 11.5143 
2 *594:9 *786:SLEEP 9.3 
3 *594:9 *787:A 10.6571 
*END

*D_NET *595 0.00092886
*CONN
*I *874:B2 I *D sky130_fd_sc_hd__a32oi_1
*I *823:SLEEP I *D sky130_fd_sc_hd__lpflow_isobufsrc_1
*I *974:A I *D sky130_fd_sc_hd__nor3_1
*I *1496:Q O *D sky130_fd_sc_hd__dfxtp_1
*CAP
1 *874:B2 0.000177542
2 *823:SLEEP 0
3 *974:A 0.0002173
4 *1496:Q 6.95881e-05
5 *595:21 0.000177542
6 *595:6 0.000286888
7 *974:A *997:A 0
8 *595:6 *596:24 0
9 *823:A *595:6 0
10 *827:A3 *974:A 0
11 *827:B2 *874:B2 0
12 *871:B *874:B2 0
13 *873:B1 *874:B2 0
14 *874:B1 *874:B2 0
15 *1496:D *974:A 0
16 *178:14 *974:A 0
*RES
1 *1496:Q *595:6 15.4429 
2 *595:6 *974:A 19.2643 
3 *595:6 *595:21 4.5 
4 *595:21 *823:SLEEP 9.3 
5 *595:21 *874:B2 13.1571 
*END

*D_NET *596 0.00179152
*CONN
*I *865:B2 I *D sky130_fd_sc_hd__a32oi_1
*I *856:A I *D sky130_fd_sc_hd__and3_1
*I *871:A I *D sky130_fd_sc_hd__nand2_1
*I *997:A I *D sky130_fd_sc_hd__nor3_1
*I *825:A I *D sky130_fd_sc_hd__nand2_1
*I *1497:Q O *D sky130_fd_sc_hd__dfxtp_1
*CAP
1 *865:B2 0
2 *856:A 2.0535e-05
3 *871:A 0
4 *997:A 0.000160575
5 *825:A 4.53482e-05
6 *1497:Q 0.000232452
7 *596:24 0.000256885
8 *596:15 0.000203691
9 *596:13 0.000361074
10 *596:11 0.000510958
11 *997:A *597:23 0
12 *596:24 *1497:CLK 0
13 *823:A *596:24 0
14 *827:A3 *997:A 0
15 *856:B *825:A 0
16 *856:B *856:A 0
17 *856:B *596:13 0
18 *856:B *596:15 0
19 *856:C *997:A 0
20 *856:C *596:13 0
21 *856:C *596:15 0
22 *856:C *596:24 0
23 *866:B1 *596:11 0
24 *866:B1 *596:13 0
25 *974:A *997:A 0
26 *173:55 *596:11 0
27 *178:14 *997:A 0
28 *203:18 *596:11 0
29 *210:21 *596:11 0
30 *592:28 *596:11 0
31 *595:6 *596:24 0
*RES
1 *1497:Q *596:11 23.3714 
2 *596:11 *596:13 5.875 
3 *596:13 *596:15 1.35714 
4 *596:15 *825:A 10.2464 
5 *596:15 *596:24 6.75 
6 *596:24 *997:A 17.3 
7 *596:24 *871:A 13.8 
8 *596:13 *856:A 9.72857 
9 *596:11 *865:B2 9.3 
*END

*D_NET *597 0.00363525
*CONN
*I *980:A I *D sky130_fd_sc_hd__nand2_1
*I *981:A1 I *D sky130_fd_sc_hd__o21ai_0
*I *863:B I *D sky130_fd_sc_hd__nand2_1
*I *865:A2 I *D sky130_fd_sc_hd__a32oi_1
*I *997:B I *D sky130_fd_sc_hd__nor3_1
*I *974:B I *D sky130_fd_sc_hd__nor3_1
*I *1498:Q O *D sky130_fd_sc_hd__dfxtp_1
*CAP
1 *980:A 0.000295368
2 *981:A1 0.000200947
3 *863:B 9.79692e-05
4 *865:A2 0.000152586
5 *997:B 0
6 *974:B 0.000116898
7 *1498:Q 0
8 *597:23 0.000673482
9 *597:13 0.000790884
10 *597:12 0.000472565
11 *597:5 0.000516505
12 *597:4 0.000318042
13 *974:B *598:31 0
14 *981:A1 *981:A2 0
15 *597:12 *981:A2 0
16 *597:13 *981:A2 0
17 *597:13 *598:9 0
18 *597:23 *598:9 0
19 *827:A3 *597:23 0
20 *862:B *981:A1 0
21 *863:A *981:A1 0
22 *863:A *597:12 0
23 *865:A3 *865:A2 0
24 *872:A *865:A2 0
25 *873:A1 *597:23 0
26 *875:A1 *865:A2 0
27 *875:A1 *597:13 0
28 *875:A2 *863:B 0
29 *875:B1 *597:12 0
30 *981:B1 *980:A 0
31 *997:A *597:23 0
32 *998:B1 *974:B 0
33 *1498:D *981:A1 0
34 *1498:D *597:12 0
35 *207:11 *980:A 0
36 *207:11 *981:A1 0
37 *210:21 *865:A2 0
38 *210:21 *974:B 0
39 *210:44 *980:A 0
40 *210:44 *981:A1 0
41 *592:34 *865:A2 0
*RES
1 *1498:Q *597:4 9.3 
2 *597:4 *597:5 0.535714 
3 *597:5 *597:12 15.375 
4 *597:12 *597:13 1.76786 
5 *597:13 *597:23 11.8036 
6 *597:23 *974:B 26.0088 
7 *597:23 *997:B 9.3 
8 *597:13 *865:A2 21.7643 
9 *597:12 *863:B 11.5321 
10 *597:5 *981:A1 23.175 
11 *597:4 *980:A 25.3893 
*END

*D_NET *598 0.00339516
*CONN
*I *981:A2 I *D sky130_fd_sc_hd__o21ai_0
*I *872:B I *D sky130_fd_sc_hd__nand2_1
*I *974:C I *D sky130_fd_sc_hd__nor3_1
*I *997:C I *D sky130_fd_sc_hd__nor3_1
*I *874:A2 I *D sky130_fd_sc_hd__a32oi_1
*I *1499:Q O *D sky130_fd_sc_hd__dfxtp_1
*CAP
1 *981:A2 0.000467519
2 *872:B 2.0535e-05
3 *974:C 0
4 *997:C 0.00011551
5 *874:A2 0.000185861
6 *1499:Q 0
7 *598:31 0.000502421
8 *598:24 0.000615102
9 *598:9 0.000707103
10 *598:4 0.000781106
11 *874:A2 *1497:CLK 0
12 *598:24 *779:20 0
13 *598:31 *779:20 0
14 *862:C *981:A2 0
15 *872:A *874:A2 0
16 *872:A *598:24 0
17 *873:A1 *874:A2 0
18 *873:A2 *598:31 0
19 *874:A1 *874:A2 0
20 *875:A1 *981:A2 0
21 *875:A1 *598:9 0
22 *974:B *598:31 0
23 *981:A1 *981:A2 0
24 *1499:D *598:9 0
25 *207:11 *981:A2 0
26 *208:7 *981:A2 0
27 *597:12 *981:A2 0
28 *597:13 *981:A2 0
29 *597:13 *598:9 0
30 *597:23 *598:9 0
*RES
1 *1499:Q *598:4 9.3 
2 *598:4 *598:9 11.1071 
3 *598:9 *874:A2 17.9071 
4 *598:9 *598:24 9.16071 
5 *598:24 *598:31 17.2321 
6 *598:31 *997:C 11.925 
7 *598:31 *974:C 9.3 
8 *598:24 *872:B 9.72857 
9 *598:4 *981:A2 28.5321 
*END

*D_NET *599 0.00301641
*CONN
*I *985:A1 I *D sky130_fd_sc_hd__o21ai_0
*I *984:A I *D sky130_fd_sc_hd__nand2_1
*I *992:C I *D sky130_fd_sc_hd__and3_1
*I *990:A2 I *D sky130_fd_sc_hd__a21oi_1
*I *826:A3 I *D sky130_fd_sc_hd__o31ai_1
*I *861:C I *D sky130_fd_sc_hd__nor3_1
*I *988:A2 I *D sky130_fd_sc_hd__o21ai_0
*I *987:A2 I *D sky130_fd_sc_hd__a221oi_1
*I *1385:Q O *D sky130_fd_sc_hd__dfxtp_1
*CAP
1 *985:A1 0
2 *984:A 0
3 *992:C 0.000237812
4 *990:A2 4.53482e-05
5 *826:A3 2.56688e-05
6 *861:C 0
7 *988:A2 3.20412e-05
8 *987:A2 5.35331e-05
9 *1385:Q 0.000420968
10 *599:64 0.000428451
11 *599:53 0.000345467
12 *599:26 0.000198542
13 *599:21 0.000237889
14 *599:18 0.000411901
15 *599:13 0.000135148
16 *599:11 0.000443642
17 *990:A2 *1387:CLK 0
18 *992:C *992:B 0
19 *992:C *601:11 0
20 *992:C *601:16 0
21 *599:21 *861:A 0
22 *599:21 *600:13 0
23 *599:26 *600:23 0
24 *599:53 *1387:CLK 0
25 *599:64 *826:A2 0
26 *599:64 *1387:CLK 0
27 *858:A *599:26 0
28 *985:A2 *599:18 0
29 *985:A2 *599:53 0
30 *985:A2 *599:64 0
31 *985:B1 *599:11 0
32 *985:B1 *599:13 0
33 *989:B *599:21 0
34 *989:B *599:53 0
35 *993:A1 *990:A2 0
36 *993:A1 *599:64 0
37 *993:A2 *990:A2 0
38 *994:B *599:11 0
39 *1385:D *599:11 0
40 *178:14 *599:18 0
41 *204:8 *988:A2 0
42 *204:8 *599:21 0
43 *204:8 *599:26 0
44 *207:11 *599:21 0
45 *207:11 *599:26 0
46 *210:60 *599:11 0
47 *311:10 *992:C 0
*RES
1 *1385:Q *599:11 18.2107 
2 *599:11 *599:13 0.535714 
3 *599:13 *599:18 11.5536 
4 *599:18 *599:21 2.60714 
5 *599:21 *599:26 7.13393 
6 *599:26 *987:A2 15.0232 
7 *599:26 *988:A2 14.6125 
8 *599:21 *861:C 9.3 
9 *599:18 *599:53 8.41071 
10 *599:53 *826:A3 14.3357 
11 *599:53 *599:64 3.39286 
12 *599:64 *990:A2 14.7464 
13 *599:64 *992:C 18.925 
14 *599:13 *984:A 9.3 
15 *599:11 *985:A1 9.3 
*END

*D_NET *600 0.00304603
*CONN
*I *992:B I *D sky130_fd_sc_hd__and3_1
*I *990:A1 I *D sky130_fd_sc_hd__a21oi_1
*I *986:A I *D sky130_fd_sc_hd__nand2_1
*I *826:A2 I *D sky130_fd_sc_hd__o31ai_1
*I *861:B I *D sky130_fd_sc_hd__nor3_1
*I *988:A1 I *D sky130_fd_sc_hd__o21ai_0
*I *987:A1 I *D sky130_fd_sc_hd__a221oi_1
*I *1386:Q O *D sky130_fd_sc_hd__dfxtp_1
*CAP
1 *992:B 0.000112474
2 *990:A1 0.000143745
3 *986:A 0
4 *826:A2 0.000137325
5 *861:B 0
6 *988:A1 1.98933e-05
7 *987:A1 6.50276e-05
8 *1386:Q 0
9 *600:62 0.000566482
10 *600:52 0.000385377
11 *600:23 0.000221733
12 *600:13 0.000341307
13 *600:5 0.000659684
14 *600:4 0.000392978
15 *826:A2 *1387:CLK 0
16 *988:A1 *859:B 0
17 *600:23 *602:15 0
18 *988:B1 *987:A1 0
19 *988:B1 *600:23 0
20 *989:A *600:5 0
21 *989:A *600:52 0
22 *989:B *600:13 0
23 *991:B *992:B 0
24 *991:B *600:52 0
25 *991:B *600:62 0
26 *992:C *992:B 0
27 *993:A1 *990:A1 0
28 *993:A2 *990:A1 0
29 *996:B *600:52 0
30 *1386:D *600:5 0
31 *1386:D *600:13 0
32 *178:14 *600:23 0
33 *204:8 *600:13 0
34 *204:8 *600:23 0
35 *205:5 *987:A1 0
36 *210:63 *600:52 0
37 *599:21 *600:13 0
38 *599:26 *600:23 0
39 *599:64 *826:A2 0
*RES
1 *1386:Q *600:4 9.3 
2 *600:4 *600:5 6.69643 
3 *600:5 *600:13 4.39286 
4 *600:13 *600:23 12.1429 
5 *600:23 *987:A1 10.6571 
6 *600:23 *988:A1 9.72857 
7 *600:13 *861:B 9.3 
8 *600:5 *826:A2 21.2911 
9 *600:4 *600:52 6.14286 
10 *600:52 *986:A 13.8 
11 *600:52 *600:62 11.375 
12 *600:62 *990:A1 12.3 
13 *600:62 *992:B 20.8536 
*END

*D_NET *601 0.00173547
*CONN
*I *991:A I *D sky130_fd_sc_hd__nand2_1
*I *992:A I *D sky130_fd_sc_hd__and3_1
*I *990:B1 I *D sky130_fd_sc_hd__a21oi_1
*I *859:B I *D sky130_fd_sc_hd__nor2_1
*I *826:A1 I *D sky130_fd_sc_hd__o31ai_1
*I *1387:Q O *D sky130_fd_sc_hd__dfxtp_1
*CAP
1 *991:A 2.0535e-05
2 *992:A 0
3 *990:B1 4.53482e-05
4 *859:B 0.000106098
5 *826:A1 3.2228e-05
6 *1387:Q 0.000160381
7 *601:18 0.000234675
8 *601:16 0.000407741
9 *601:11 0.000406794
10 *601:9 0.000321667
11 *826:A1 *861:A 0
12 *859:B *602:15 0
13 *983:A *601:18 0
14 *985:A2 *826:A1 0
15 *985:A2 *601:18 0
16 *988:A1 *859:B 0
17 *989:B *826:A1 0
18 *989:B *859:B 0
19 *989:B *601:18 0
20 *991:B *991:A 0
21 *991:B *601:9 0
22 *991:B *601:11 0
23 *992:C *601:11 0
24 *992:C *601:16 0
25 *205:5 *859:B 0
*RES
1 *1387:Q *601:9 21.8179 
2 *601:9 *601:11 3 
3 *601:11 *601:16 10.2679 
4 *601:16 *601:18 2.25 
5 *601:18 *826:A1 14.5321 
6 *601:18 *859:B 16.1393 
7 *601:16 *990:B1 14.7464 
8 *601:11 *992:A 9.3 
9 *601:9 *991:A 9.72857 
*END

*D_NET *602 0.00217103
*CONN
*I *994:A I *D sky130_fd_sc_hd__nand2_1
*I *995:A1 I *D sky130_fd_sc_hd__o21ai_0
*I *826:B1 I *D sky130_fd_sc_hd__o31ai_1
*I *859:A I *D sky130_fd_sc_hd__nor2_1
*I *861:A I *D sky130_fd_sc_hd__nor3_1
*I *1388:Q O *D sky130_fd_sc_hd__dfxtp_1
*CAP
1 *994:A 0.000114714
2 *995:A1 0.000102247
3 *826:B1 1.02675e-05
4 *859:A 0
5 *861:A 0.00013108
6 *1388:Q 0
7 *602:15 0.00027568
8 *602:11 0.000236581
9 *602:10 0.000684853
10 *602:4 0.000615608
11 *602:10 *1387:CLK 0
12 *602:10 *779:103 0
13 *602:10 *779:110 0
14 *826:A1 *861:A 0
15 *859:B *602:15 0
16 *985:A2 *861:A 0
17 *989:B *861:A 0
18 *993:A2 *995:A1 0
19 *993:A2 *602:11 0
20 *993:A3 *826:B1 0
21 *993:A3 *995:A1 0
22 *993:B1 *995:A1 0
23 *996:B *994:A 0
24 *1388:D *994:A 0
25 *1388:D *602:10 0
26 *178:14 *602:15 0
27 *210:63 *602:10 0
28 *599:21 *861:A 0
29 *600:23 *602:15 0
*RES
1 *1388:Q *602:4 9.3 
2 *602:4 *602:10 19.8393 
3 *602:10 *602:11 1.76786 
4 *602:11 *602:15 3.01786 
5 *602:15 *861:A 21.1929 
6 *602:15 *859:A 9.3 
7 *602:11 *826:B1 9.72857 
8 *602:10 *995:A1 11.4964 
9 *602:4 *994:A 20.8893 
*END

*D_NET *603 0.0689349
*CONN
*I *1487:RESET_B I *D sky130_fd_sc_hd__dfrtp_1
*I *1508:RESET_B I *D sky130_fd_sc_hd__dfrtp_1
*I *1486:RESET_B I *D sky130_fd_sc_hd__dfrtp_1
*I *1477:RESET_B I *D sky130_fd_sc_hd__dfrtp_1
*I *1476:RESET_B I *D sky130_fd_sc_hd__dfrtp_1
*I *1475:RESET_B I *D sky130_fd_sc_hd__dfrtp_1
*I *1471:RESET_B I *D sky130_fd_sc_hd__dfrtp_1
*I *1472:RESET_B I *D sky130_fd_sc_hd__dfrtp_1
*I *1445:RESET_B I *D sky130_fd_sc_hd__dfrtp_1
*I *1440:RESET_B I *D sky130_fd_sc_hd__dfrtp_1
*I *1469:RESET_B I *D sky130_fd_sc_hd__dfrtp_1
*I *1434:RESET_B I *D sky130_fd_sc_hd__dfrtp_1
*I *1473:RESET_B I *D sky130_fd_sc_hd__dfrtp_1
*I *1474:RESET_B I *D sky130_fd_sc_hd__dfrtp_1
*I *1463:RESET_B I *D sky130_fd_sc_hd__dfrtp_1
*I *1464:RESET_B I *D sky130_fd_sc_hd__dfrtp_1
*I *1467:RESET_B I *D sky130_fd_sc_hd__dfrtp_1
*I *1468:RESET_B I *D sky130_fd_sc_hd__dfrtp_1
*I *1436:RESET_B I *D sky130_fd_sc_hd__dfrtp_1
*I *1437:RESET_B I *D sky130_fd_sc_hd__dfrtp_1
*I *1465:RESET_B I *D sky130_fd_sc_hd__dfrtp_1
*I *1438:RESET_B I *D sky130_fd_sc_hd__dfrtp_1
*I *1433:RESET_B I *D sky130_fd_sc_hd__dfrtp_1
*I *1432:RESET_B I *D sky130_fd_sc_hd__dfrtp_1
*I *1435:RESET_B I *D sky130_fd_sc_hd__dfrtp_1
*I *1466:RESET_B I *D sky130_fd_sc_hd__dfrtp_1
*I *1439:RESET_B I *D sky130_fd_sc_hd__dfrtp_1
*I *1444:RESET_B I *D sky130_fd_sc_hd__dfrtp_1
*I *1413:RESET_B I *D sky130_fd_sc_hd__dfrtp_1
*I *1408:RESET_B I *D sky130_fd_sc_hd__dfrtp_1
*I *1451:RESET_B I *D sky130_fd_sc_hd__dfrtp_1
*I *1458:RESET_B I *D sky130_fd_sc_hd__dfrtp_1
*I *1457:RESET_B I *D sky130_fd_sc_hd__dfrtp_1
*I *1453:RESET_B I *D sky130_fd_sc_hd__dfrtp_1
*I *1419:RESET_B I *D sky130_fd_sc_hd__dfrtp_1
*I *1452:RESET_B I *D sky130_fd_sc_hd__dfrtp_1
*I *1420:RESET_B I *D sky130_fd_sc_hd__dfrtp_1
*I *1449:RESET_B I *D sky130_fd_sc_hd__dfrtp_1
*I *1448:RESET_B I *D sky130_fd_sc_hd__dfrtp_1
*I *1421:RESET_B I *D sky130_fd_sc_hd__dfrtp_1
*I *1422:RESET_B I *D sky130_fd_sc_hd__dfrtp_1
*I *1423:RESET_B I *D sky130_fd_sc_hd__dfrtp_1
*I *1395:RESET_B I *D sky130_fd_sc_hd__dfrtp_1
*I *1396:RESET_B I *D sky130_fd_sc_hd__dfrtp_1
*I *1424:RESET_B I *D sky130_fd_sc_hd__dfrtp_1
*I *1425:RESET_B I *D sky130_fd_sc_hd__dfrtp_1
*I *1426:RESET_B I *D sky130_fd_sc_hd__dfrtp_1
*I *1456:RESET_B I *D sky130_fd_sc_hd__dfrtp_1
*I *1455:RESET_B I *D sky130_fd_sc_hd__dfrtp_1
*I *1454:RESET_B I *D sky130_fd_sc_hd__dfrtp_1
*I *1459:RESET_B I *D sky130_fd_sc_hd__dfrtp_1
*I *1483:RESET_B I *D sky130_fd_sc_hd__dfrtp_1
*I *1482:RESET_B I *D sky130_fd_sc_hd__dfrtp_1
*I *1481:RESET_B I *D sky130_fd_sc_hd__dfrtp_1
*I *1460:RESET_B I *D sky130_fd_sc_hd__dfrtp_1
*I *1418:RESET_B I *D sky130_fd_sc_hd__dfrtp_1
*I *1450:RESET_B I *D sky130_fd_sc_hd__dfrtp_1
*I *1417:RESET_B I *D sky130_fd_sc_hd__dfrtp_1
*I *1416:RESET_B I *D sky130_fd_sc_hd__dfrtp_1
*I *1446:RESET_B I *D sky130_fd_sc_hd__dfrtp_1
*I *1447:RESET_B I *D sky130_fd_sc_hd__dfrtp_1
*I *1393:RESET_B I *D sky130_fd_sc_hd__dfrtp_1
*I *1414:RESET_B I *D sky130_fd_sc_hd__dfrtp_1
*I *1407:RESET_B I *D sky130_fd_sc_hd__dfrtp_1
*I *1401:RESET_B I *D sky130_fd_sc_hd__dfrtp_1
*I *1415:RESET_B I *D sky130_fd_sc_hd__dfrtp_1
*I *1392:RESET_B I *D sky130_fd_sc_hd__dfrtp_1
*I *1394:RESET_B I *D sky130_fd_sc_hd__dfrtp_1
*I *1397:RESET_B I *D sky130_fd_sc_hd__dfrtp_1
*I *1398:RESET_B I *D sky130_fd_sc_hd__dfrtp_1
*I *1427:RESET_B I *D sky130_fd_sc_hd__dfrtp_1
*I *1428:RESET_B I *D sky130_fd_sc_hd__dfrtp_1
*I *1399:RESET_B I *D sky130_fd_sc_hd__dfrtp_1
*I *1406:RESET_B I *D sky130_fd_sc_hd__dfrtp_1
*I *1400:RESET_B I *D sky130_fd_sc_hd__dfrtp_1
*I *1405:RESET_B I *D sky130_fd_sc_hd__dfrtp_1
*I *1403:RESET_B I *D sky130_fd_sc_hd__dfrtp_1
*I *1429:RESET_B I *D sky130_fd_sc_hd__dfrtp_1
*I *1404:RESET_B I *D sky130_fd_sc_hd__dfrtp_1
*I *1402:RESET_B I *D sky130_fd_sc_hd__dfrtp_1
*I *1409:RESET_B I *D sky130_fd_sc_hd__dfrtp_1
*I *1431:RESET_B I *D sky130_fd_sc_hd__dfrtp_1
*I *1412:RESET_B I *D sky130_fd_sc_hd__dfrtp_1
*I *1411:RESET_B I *D sky130_fd_sc_hd__dfrtp_1
*I *1430:RESET_B I *D sky130_fd_sc_hd__dfrtp_1
*I *1410:RESET_B I *D sky130_fd_sc_hd__dfrtp_1
*I *1443:RESET_B I *D sky130_fd_sc_hd__dfrtp_1
*I *1442:RESET_B I *D sky130_fd_sc_hd__dfrtp_1
*I *1441:RESET_B I *D sky130_fd_sc_hd__dfrtp_1
*I *1470:RESET_B I *D sky130_fd_sc_hd__dfrtp_1
*I *1462:RESET_B I *D sky130_fd_sc_hd__dfrtp_1
*I *1485:RESET_B I *D sky130_fd_sc_hd__dfrtp_1
*I *1391:SET_B I *D sky130_fd_sc_hd__dfstp_2
*I *1484:RESET_B I *D sky130_fd_sc_hd__dfrtp_1
*I *1479:RESET_B I *D sky130_fd_sc_hd__dfrtp_1
*I *1480:RESET_B I *D sky130_fd_sc_hd__dfrtp_1
*I *1461:RESET_B I *D sky130_fd_sc_hd__dfrtp_1
*I *1478:RESET_B I *D sky130_fd_sc_hd__dfrtp_1
*I *876:X O *D sky130_fd_sc_hd__lpflow_isobufsrc_1
*CAP
1 *1487:RESET_B 0
2 *1508:RESET_B 0
3 *1486:RESET_B 6.20329e-05
4 *1477:RESET_B 8.17123e-05
5 *1476:RESET_B 1.21912e-05
6 *1475:RESET_B 0
7 *1471:RESET_B 4.23535e-05
8 *1472:RESET_B 4.23535e-05
9 *1445:RESET_B 0.000966146
10 *1440:RESET_B 0
11 *1469:RESET_B 7.44395e-05
12 *1434:RESET_B 6.20329e-05
13 *1473:RESET_B 1.55082e-05
14 *1474:RESET_B 0.000258865
15 *1463:RESET_B 0
16 *1464:RESET_B 2.94948e-05
17 *1467:RESET_B 0
18 *1468:RESET_B 0
19 *1436:RESET_B 0.000243037
20 *1437:RESET_B 0.000768478
21 *1465:RESET_B 2.26741e-05
22 *1438:RESET_B 1.1337e-05
23 *1433:RESET_B 0
24 *1432:RESET_B 0.000208823
25 *1435:RESET_B 4.23535e-05
26 *1466:RESET_B 0.000695624
27 *1439:RESET_B 1.45456e-05
28 *1444:RESET_B 1.75403e-05
29 *1413:RESET_B 0.000272413
30 *1408:RESET_B 3.75299e-05
31 *1451:RESET_B 0
32 *1458:RESET_B 6.59493e-05
33 *1457:RESET_B 6.96077e-05
34 *1453:RESET_B 4.32091e-05
35 *1419:RESET_B 0
36 *1452:RESET_B 1.96794e-05
37 *1420:RESET_B 0
38 *1449:RESET_B 4.32091e-05
39 *1448:RESET_B 0.000124066
40 *1421:RESET_B 0
41 *1422:RESET_B 0
42 *1423:RESET_B 0
43 *1395:RESET_B 0
44 *1396:RESET_B 0
45 *1424:RESET_B 0
46 *1425:RESET_B 0
47 *1426:RESET_B 7.23606e-05
48 *1456:RESET_B 0.000215763
49 *1455:RESET_B 0
50 *1454:RESET_B 3.75406e-05
51 *1459:RESET_B 0.000418371
52 *1483:RESET_B 0.000219441
53 *1482:RESET_B 0
54 *1481:RESET_B 7.23606e-05
55 *1460:RESET_B 0.000790741
56 *1418:RESET_B 8.17123e-05
57 *1450:RESET_B 0.000332839
58 *1417:RESET_B 0.000332839
59 *1416:RESET_B 0
60 *1446:RESET_B 0.000287761
61 *1447:RESET_B 0
62 *1393:RESET_B 4.23535e-05
63 *1414:RESET_B 0.000121071
64 *1407:RESET_B 0.000341395
65 *1401:RESET_B 0.000365667
66 *1415:RESET_B 0.000115167
67 *1392:RESET_B 0.000130267
68 *1394:RESET_B 0
69 *1397:RESET_B 0
70 *1398:RESET_B 0
71 *1427:RESET_B 4.32091e-05
72 *1428:RESET_B 1.1337e-05
73 *1399:RESET_B 1.70056e-05
74 *1406:RESET_B 0.000425301
75 *1400:RESET_B 0.000140702
76 *1405:RESET_B 1.70056e-05
77 *1403:RESET_B 0.000308755
78 *1429:RESET_B 2.26741e-05
79 *1404:RESET_B 0.000415834
80 *1402:RESET_B 5.89896e-05
81 *1409:RESET_B 0.00087654
82 *1431:RESET_B 0.000716159
83 *1412:RESET_B 1.1337e-05
84 *1411:RESET_B 8.25679e-05
85 *1430:RESET_B 0.000350993
86 *1410:RESET_B 2.26741e-05
87 *1443:RESET_B 0.000767213
88 *1442:RESET_B 0.000133017
89 *1441:RESET_B 2.26741e-05
90 *1470:RESET_B 0.000184026
91 *1462:RESET_B 2.35958e-05
92 *1485:RESET_B 1.1337e-05
93 *1391:SET_B 0.000309615
94 *1484:RESET_B 4.23535e-05
95 *1479:RESET_B 0.000512056
96 *1480:RESET_B 0.00036402
97 *1461:RESET_B 0.000275599
98 *1478:RESET_B 0.000465105
99 *876:X 0.00024579
100 *603:947 0.000461893
101 *603:938 0.000504501
102 *603:909 0.00046236
103 *603:907 0.000534113
104 *603:889 0.000798401
105 *603:875 0.000778539
106 *603:861 0.000691132
107 *603:858 0.000817307
108 *603:856 0.000532219
109 *603:842 0.000431017
110 *603:833 0.000788365
111 *603:829 0.000701809
112 *603:817 0.000834021
113 *603:807 0.000693163
114 *603:800 0.00061466
115 *603:756 0.000298762
116 *603:745 0.000403006
117 *603:679 0.000465231
118 *603:673 0.000459706
119 *603:671 0.000325957
120 *603:667 0.000398337
121 *603:665 0.000425492
122 *603:663 0.00043611
123 *603:661 0.000219441
124 *603:659 0.000399744
125 *603:657 0.000412445
126 *603:655 0.000700626
127 *603:644 0.00065282
128 *603:639 0.000105118
129 *603:638 0.000855781
130 *603:616 0.000485936
131 *603:582 0.000449461
132 *603:575 0.000564202
133 *603:571 0.000821799
134 *603:556 0.000901972
135 *603:553 0.000651407
136 *603:544 0.00114179
137 *603:540 0.000573095
138 *603:510 0.000641641
139 *603:504 0.000572376
140 *603:492 0.000632889
141 *603:486 0.000382331
142 *603:477 0.000395151
143 *603:448 0.000763299
144 *603:446 0.000563707
145 *603:434 0.000774492
146 *603:422 0.000780095
147 *603:419 0.000532144
148 *603:413 0.0005161
149 *603:407 0.00063636
150 *603:401 0.000288931
151 *603:390 0.000659378
152 *603:377 0.00103279
153 *603:363 0.000603002
154 *603:338 0.000566003
155 *603:336 0.000785572
156 *603:324 0.000726533
157 *603:306 0.000457274
158 *603:291 0.000717617
159 *603:290 0.000823292
160 *603:285 0.000883292
161 *603:276 0.000455904
162 *603:273 0.00105312
163 *603:260 0
164 *603:234 0.00075017
165 *603:207 0.00066185
166 *603:196 0.000364301
167 *603:191 0.000259103
168 *603:189 0.000749944
169 *603:182 0.000719833
170 *603:150 0.000217724
171 *603:149 0.000875723
172 *603:145 0.000437369
173 *603:143 0.000165879
174 *603:141 0.00140477
175 *603:130 0.000662805
176 *603:128 0.000285391
177 *603:124 0.000499248
178 *603:116 0.000456894
179 *603:114 0.000609358
180 *603:109 0.000684314
181 *603:81 0.000642847
182 *603:74 0.000802935
183 *603:50 0.00107098
184 *603:37 0.000994033
185 *603:35 0.000378626
186 *603:22 0.000570618
187 *603:14 0.000678553
188 *603:12 0.000438883
189 *603:10 0.000315398
190 *1391:SET_B *1324:A 0
191 *1392:RESET_B *774:6 0
192 *1393:RESET_B *774:85 0
193 *1400:RESET_B *651:11 0
194 *1401:RESET_B *1072:A 0
195 *1401:RESET_B *694:25 0
196 *1402:RESET_B *628:36 0
197 *1402:RESET_B *695:23 0
198 *1403:RESET_B *1156:A 0
199 *1403:RESET_B *623:9 0
200 *1403:RESET_B *625:21 0
201 *1404:RESET_B *624:10 0
202 *1404:RESET_B *624:38 0
203 *1406:RESET_B *626:5 0
204 *1406:RESET_B *650:8 0
205 *1406:RESET_B *650:15 0
206 *1406:RESET_B *651:11 0
207 *1406:RESET_B *651:21 0
208 *1411:RESET_B *697:17 0
209 *1413:RESET_B *1020:A 0
210 *1413:RESET_B *1108:A 0
211 *1413:RESET_B *622:25 0
212 *1413:RESET_B *623:40 0
213 *1415:RESET_B *1061:A 0
214 *1427:RESET_B *774:42 0
215 *1428:RESET_B *1428:CLK 0
216 *1429:RESET_B *1406:CLK 0
217 *1429:RESET_B *696:10 0
218 *1430:RESET_B *1160:A 0
219 *1430:RESET_B *1430:CLK 0
220 *1430:RESET_B *766:40 0
221 *1431:RESET_B *1412:CLK 0
222 *1431:RESET_B *698:8 0
223 *1432:RESET_B *764:8 0
224 *1432:RESET_B *764:10 0
225 *1435:RESET_B *763:11 0
226 *1436:RESET_B *1274:A 0
227 *1437:RESET_B *1265:A 0
228 *1437:RESET_B *654:19 0
229 *1437:RESET_B *683:6 0
230 *1437:RESET_B *683:8 0
231 *1437:RESET_B *768:22 0
232 *1437:RESET_B *768:33 0
233 *1439:RESET_B *1440:CLK 0
234 *1441:RESET_B *1443:CLK 0
235 *1442:RESET_B *613:17 0
236 *1443:RESET_B *1443:CLK 0
237 *1445:RESET_B *923:C2 0
238 *1445:RESET_B *945:B2 0
239 *1445:RESET_B *948:C2 0
240 *1445:RESET_B *1276:A 0
241 *1445:RESET_B *604:30 0
242 *1446:RESET_B *1214:A 0
243 *1446:RESET_B *1416:CLK 0
244 *1446:RESET_B *618:12 0
245 *1448:RESET_B *1217:A 0
246 *1448:RESET_B *619:7 0
247 *1450:RESET_B *606:8 0
248 *1450:RESET_B *638:5 0
249 *1450:RESET_B *778:31 0
250 *1450:RESET_B *778:39 0
251 *1459:RESET_B *1250:A 0
252 *1459:RESET_B *1459:CLK 0
253 *1459:RESET_B *670:9 0
254 *1460:RESET_B *927:A1 0
255 *1460:RESET_B *1017:A 0
256 *1460:RESET_B *1017:B 0
257 *1460:RESET_B *1018:A 0
258 *1460:RESET_B *1250:A 0
259 *1461:RESET_B *1301:A 0
260 *1461:RESET_B *665:8 0
261 *1461:RESET_B *665:14 0
262 *1461:RESET_B *681:38 0
263 *1464:RESET_B *768:33 0
264 *1465:RESET_B *653:10 0
265 *1465:RESET_B *768:19 0
266 *1466:RESET_B *1440:CLK 0
267 *1466:RESET_B *654:5 0
268 *1466:RESET_B *763:30 0
269 *1466:RESET_B *763:59 0
270 *1470:RESET_B *1283:A 0
271 *1474:RESET_B *1259:A 0
272 *1477:RESET_B *1303:A 0
273 *1478:RESET_B *1304:A 0
274 *1480:RESET_B *1306:A 0
275 *1480:RESET_B *776:9 0
276 *1481:RESET_B *670:9 0
277 *1481:RESET_B *672:11 0
278 *1483:RESET_B *1318:A 0
279 *1483:RESET_B *672:11 0
280 *1484:RESET_B *776:57 0
281 *1486:RESET_B *1328:A 0
282 *603:10 *1000:B 0
283 *603:10 *745:14 0
284 *603:10 *746:16 0
285 *603:12 *1000:B 0
286 *603:14 *1000:B 0
287 *603:35 *1301:A 0
288 *603:37 *1301:A 0
289 *603:74 *928:B2 0
290 *603:74 *1321:A 0
291 *603:81 *1324:A 0
292 *603:81 *675:10 0
293 *603:109 *920:C2 0
294 *603:109 *662:34 0
295 *603:114 *662:34 0
296 *603:116 *1832:A 0
297 *603:116 *765:72 0
298 *603:124 *1255:A 0
299 *603:124 *1470:CLK 0
300 *603:124 *765:48 0
301 *603:124 *765:72 0
302 *603:128 *1470:CLK 0
303 *603:128 *765:14 0
304 *603:128 *765:48 0
305 *603:130 *1470:CLK 0
306 *603:130 *765:14 0
307 *603:141 *765:14 0
308 *603:143 *604:30 0
309 *603:143 *765:14 0
310 *603:149 *612:18 0
311 *603:149 *765:14 0
312 *603:149 *765:18 0
313 *603:150 *1443:CLK 0
314 *603:182 *613:24 0
315 *603:182 *698:36 0
316 *603:182 *766:13 0
317 *603:189 *613:24 0
318 *603:189 *696:30 0
319 *603:196 *1409:CLK 0
320 *603:196 *630:7 0
321 *603:207 *1160:A 0
322 *603:207 *1409:CLK 0
323 *603:207 *697:28 0
324 *603:207 *766:32 0
325 *603:273 *1097:A 0
326 *603:273 *622:7 0
327 *603:276 *772:11 0
328 *603:276 *772:15 0
329 *603:285 *772:11 0
330 *603:290 *1084:A 0
331 *603:290 *625:10 0
332 *603:290 *625:21 0
333 *603:290 *626:12 0
334 *603:291 *625:5 0
335 *603:291 *625:10 0
336 *603:306 *1084:A 0
337 *603:306 *625:10 0
338 *603:336 *625:5 0
339 *603:336 *650:8 0
340 *603:363 *650:8 0
341 *603:377 *1428:CLK 0
342 *603:390 *1153:A 0
343 *603:390 *1428:CLK 0
344 *603:390 *694:17 0
345 *603:407 *693:22 0
346 *603:413 *1051:A 0
347 *603:413 *693:22 0
348 *603:419 *1051:A 0
349 *603:419 *645:18 0
350 *603:422 *1393:CLK 0
351 *603:422 *774:85 0
352 *603:434 *647:35 0
353 *603:446 *1115:A 0
354 *603:504 *1117:A 0
355 *603:504 *618:12 0
356 *603:504 *637:17 0
357 *603:510 *1120:A 0
358 *603:510 *1124:A 0
359 *603:510 *637:17 0
360 *603:540 *1124:A 0
361 *603:540 *1223:A 0
362 *603:540 *778:31 0
363 *603:544 *1124:A 0
364 *603:556 *610:7 0
365 *603:575 *1460:CLK 0
366 *603:575 *670:9 0
367 *603:582 *670:9 0
368 *603:582 *672:11 0
369 *603:616 *1234:A 0
370 *603:638 *608:12 0
371 *603:638 *609:21 0
372 *603:638 *639:11 0
373 *603:644 *1126:A 0
374 *603:644 *640:10 0
375 *603:655 *1129:A 0
376 *603:655 *640:10 0
377 *603:659 *1217:A 0
378 *603:659 *1449:CLK 0
379 *603:659 *775:54 0
380 *603:661 *775:54 0
381 *603:663 *643:10 0
382 *603:663 *775:54 0
383 *603:665 *1138:A 0
384 *603:665 *644:8 0
385 *603:665 *644:10 0
386 *603:671 *1054:A 0
387 *603:671 *1058:A 0
388 *603:671 *646:23 0
389 *603:673 *1144:A 0
390 *603:679 *1144:A 0
391 *603:679 *692:8 0
392 *603:745 *1126:A 0
393 *603:745 *609:8 0
394 *603:756 *609:8 0
395 *603:756 *674:14 0
396 *603:817 *1440:CLK 0
397 *603:833 *685:18 0
398 *603:833 *763:11 0
399 *603:842 *687:8 0
400 *603:861 *690:7 0
401 *603:861 *690:16 0
402 *603:875 *653:10 0
403 *603:875 *768:19 0
404 *603:889 *1261:A 0
405 *603:889 *768:18 0
406 *603:907 *1181:A 0
407 *603:907 *654:19 0
408 *603:907 *656:25 0
409 *603:909 *1274:A 0
410 *603:909 *655:9 0
411 *603:909 *656:25 0
412 *1009:C *1478:RESET_B 0
413 *1009:C *603:22 0
414 *1053:A2 *603:434 0
415 *1053:A2 *603:477 0
416 *1053:A2 *603:486 0
417 *1060:B *1401:RESET_B 0
418 *1062:A2 *1415:RESET_B 0
419 *1069:B *1406:RESET_B 0
420 *1071:A2 *603:336 0
421 *1071:B1 *1406:RESET_B 0
422 *1077:B1 *603:273 0
423 *1089:A1 *603:290 0
424 *1089:B1 *603:290 0
425 *1089:B1 *603:336 0
426 *1093:B *603:290 0
427 *1100:B *603:189 0
428 *1101:A2 *603:189 0
429 *1101:B1 *1410:RESET_B 0
430 *1101:B1 *603:191 0
431 *1101:B1 *603:196 0
432 *1107:A2 *1431:RESET_B 0
433 *1114:B *603:446 0
434 *1116:A2 *1401:RESET_B 0
435 *1116:A2 *603:448 0
436 *1125:A2 *603:544 0
437 *1128:A2 *603:745 0
438 *1132:B *603:663 0
439 *1133:B *603:663 0
440 *1133:B *603:665 0
441 *1143:A2 *603:673 0
442 *1146:A *1426:RESET_B 0
443 *1146:A *603:679 0
444 *1150:B *603:401 0
445 *1151:B *603:390 0
446 *1152:A *603:390 0
447 *1152:A *603:401 0
448 *1152:B *603:390 0
449 *1153:B *603:390 0
450 *1155:A1 *1400:RESET_B 0
451 *1157:B *1404:RESET_B 0
452 *1159:B *1430:RESET_B 0
453 *1159:B *603:207 0
454 *1163:B *1431:RESET_B 0
455 *1164:A1 *1442:RESET_B 0
456 *1164:A1 *603:149 0
457 *1167:A1 *1432:RESET_B 0
458 *1170:B1 *603:842 0
459 *1173:A *1466:RESET_B 0
460 *1185:B1 *1438:RESET_B 0
461 *1185:B1 *603:861 0
462 *1185:B1 *603:875 0
463 *1188:A1 *603:833 0
464 *1188:A2 *603:833 0
465 *1188:A2 *603:856 0
466 *1188:B1 *603:807 0
467 *1200:B *603:149 0
468 *1205:B *1445:RESET_B 0
469 *1212:B1 *1446:RESET_B 0
470 *1214:B *603:504 0
471 *1215:A1 *603:504 0
472 *1215:A2 *1446:RESET_B 0
473 *1217:B *603:655 0
474 *1217:B *603:657 0
475 *1217:B *603:659 0
476 *1236:A2 *603:616 0
477 *1239:A *1456:RESET_B 0
478 *1240:B *1456:RESET_B 0
479 *1242:A1 *603:745 0
480 *1242:A1 *603:756 0
481 *1250:B *1459:RESET_B 0
482 *1259:B *1474:RESET_B 0
483 *1261:B *1437:RESET_B 0
484 *1261:B *1464:RESET_B 0
485 *1261:B *603:889 0
486 *1263:A *1437:RESET_B 0
487 *1263:A *603:889 0
488 *1271:B *603:907 0
489 *1273:B *603:909 0
490 *1284:A2 *1470:RESET_B 0
491 *1295:B *603:116 0
492 *1295:B *603:124 0
493 *1302:A2 *603:35 0
494 *1305:A *603:22 0
495 *1308:B1 *603:74 0
496 *1311:A *1480:RESET_B 0
497 *1323:B *1391:SET_B 0
498 *1326:A1 *603:74 0
499 *1329:A *603:14 0
500 *1369:A2 *603:10 0
501 *1369:A2 *603:14 0
502 *1391:D *1391:SET_B 0
503 *1393:D *603:434 0
504 *1400:D *603:336 0
505 *1401:D *1401:RESET_B 0
506 *1409:D *1409:RESET_B 0
507 *1411:D *1430:RESET_B 0
508 *1412:D *1412:RESET_B 0
509 *1412:D *1431:RESET_B 0
510 *1412:D *603:234 0
511 *1419:D *603:745 0
512 *1425:D *1426:RESET_B 0
513 *1430:D *1430:RESET_B 0
514 *1433:D *603:842 0
515 *1439:D *1466:RESET_B 0
516 *1443:D *1443:RESET_B 0
517 *1444:D *603:182 0
518 *1449:D *603:657 0
519 *1449:D *603:659 0
520 *1452:D *603:655 0
521 *1453:D *603:745 0
522 *1453:D *603:756 0
523 *1455:D *603:616 0
524 *1458:D *1457:RESET_B 0
525 *1458:D *603:756 0
526 *1459:D *1459:RESET_B 0
527 *1460:D *1459:RESET_B 0
528 *1469:D *603:807 0
529 *1471:D *1471:RESET_B 0
530 *1473:D *603:938 0
531 *1473:D *603:947 0
532 *1475:D *603:114 0
533 *1475:D *603:116 0
534 *1477:D *1478:RESET_B 0
535 *1478:D *1478:RESET_B 0
536 *1480:D *1480:RESET_B 0
537 *1487:D *603:14 0
538 *219:20 *1391:SET_B 0
539 *219:20 *603:74 0
540 *219:20 *603:81 0
541 *232:37 *1461:RESET_B 0
542 *248:13 *1391:SET_B 0
543 *315:10 *603:14 0
544 *315:12 *603:22 0
545 *315:21 *603:22 0
546 *315:21 *603:109 0
547 *315:124 *603:124 0
548 *315:124 *603:130 0
549 *315:124 *603:141 0
550 *315:126 *603:141 0
551 *315:128 *603:141 0
552 *315:132 *603:143 0
553 *315:156 *603:858 0
554 *315:156 *603:938 0
555 *315:169 *603:938 0
556 *315:169 *603:947 0
557 *315:213 *1432:RESET_B 0
558 *315:213 *603:842 0
559 *315:224 *603:842 0
560 *315:373 *603:182 0
561 *315:487 *1403:RESET_B 0
562 *315:495 *1403:RESET_B 0
563 *315:502 *1403:RESET_B 0
564 *315:502 *603:306 0
565 *315:527 *1403:RESET_B 0
566 *315:527 *603:290 0
567 *315:553 *1406:RESET_B 0
568 *315:633 *1414:RESET_B 0
569 *315:637 *603:446 0
570 *315:656 *603:413 0
571 *315:672 *603:419 0
572 *315:672 *603:477 0
573 *315:735 *603:544 0
574 *315:742 *603:544 0
575 *315:742 *603:553 0
576 *315:747 *603:553 0
577 *315:747 *603:616 0
578 *315:861 *1418:RESET_B 0
579 *315:876 *603:655 0
580 *315:878 *603:655 0
581 *315:942 *603:671 0
582 *315:942 *603:673 0
583 *315:968 *603:665 0
584 *315:968 *603:667 0
585 *315:968 *603:671 0
586 *315:981 *603:665 0
587 *315:1005 *603:679 0
588 *316:11 *603:10 0
589 *316:11 *603:12 0
590 *316:11 *603:14 0
591 *316:20 *1478:RESET_B 0
592 *316:20 *603:14 0
593 *316:20 *603:22 0
594 *316:58 *1445:RESET_B 0
595 *316:110 *1442:RESET_B 0
596 *316:110 *603:149 0
597 *316:132 *1444:RESET_B 0
598 *316:132 *603:182 0
599 *316:132 *603:189 0
600 *316:164 *1401:RESET_B 0
601 *316:164 *1407:RESET_B 0
602 *316:164 *603:446 0
603 *316:164 *603:448 0
604 *316:174 *1407:RESET_B 0
605 *316:184 *603:448 0
606 *316:203 *603:434 0
607 *316:210 *603:434 0
608 *316:225 *603:413 0
609 *316:268 *603:671 0
610 *316:368 *603:189 0
611 *316:372 *603:189 0
612 *316:372 *603:191 0
613 *316:372 *603:196 0
614 *316:372 *603:207 0
615 *316:380 *603:207 0
616 *316:437 *1406:RESET_B 0
617 *316:487 *603:290 0
618 *316:559 *603:856 0
619 *316:559 *603:858 0
620 *316:567 *603:938 0
621 *316:574 *603:858 0
622 *316:574 *603:938 0
623 *316:884 *1391:SET_B 0
624 *316:908 *1459:RESET_B 0
625 *316:920 *1459:RESET_B 0
626 *316:940 *1456:RESET_B 0
627 *316:999 *1446:RESET_B 0
628 *345:11 *1445:RESET_B 0
629 *360:24 *603:434 0
630 *360:28 *603:434 0
631 *360:32 *1415:RESET_B 0
632 *360:57 *1407:RESET_B 0
633 *360:62 *1407:RESET_B 0
634 *360:150 *1430:RESET_B 0
635 *360:358 *603:655 0
636 *360:358 *603:657 0
637 *360:358 *603:659 0
638 *360:364 *603:644 0
639 *360:364 *603:655 0
640 *360:364 *603:745 0
641 *360:391 *603:638 0
642 *360:394 *603:616 0
643 *360:421 *603:74 0
644 *360:452 *603:143 0
645 *360:452 *603:149 0
646 *360:480 *603:842 0
647 *360:487 *603:842 0
648 *578:13 *1432:RESET_B 0
649 *578:13 *603:842 0
650 *592:173 *1474:RESET_B 0
651 *592:173 *603:947 0
652 *592:200 *1436:RESET_B 0
653 *592:200 *1437:RESET_B 0
654 *592:200 *603:907 0
655 *592:200 *603:909 0
*RES
1 *876:X *603:10 19.4429 
2 *603:10 *603:12 1.64286 
3 *603:12 *603:14 8.32143 
4 *603:14 *603:22 9.21139 
5 *603:22 *1478:RESET_B 10.0179 
6 *1478:RESET_B *603:35 9.51786 
7 *603:35 *603:37 0.580357 
8 *603:37 *1461:RESET_B 10.6964 
9 *603:37 *603:50 19.1429 
10 *603:50 *1480:RESET_B 16.7054 
11 *603:50 *1479:RESET_B 0.473214 
12 *1479:RESET_B *603:74 20.1964 
13 *603:74 *603:81 10.875 
14 *603:81 *1484:RESET_B 5.38393 
15 *603:81 *1391:SET_B 20.375 
16 *603:74 *1485:RESET_B 0.473214 
17 *603:35 *603:109 3.8894 
18 *603:109 *603:114 5.60752 
19 *603:114 *603:116 1.64286 
20 *603:116 *1462:RESET_B 5.03571 
21 *603:116 *603:124 8.32143 
22 *603:124 *603:128 2.17857 
23 *603:128 *603:130 3.46429 
24 *603:130 *1470:RESET_B 8.38393 
25 *603:130 *603:141 7.41071 
26 *603:141 *603:143 2.55357 
27 *603:143 *603:145 1.33929 
28 *603:145 *603:149 13.125 
29 *603:149 *603:150 1.35714 
30 *603:150 *1441:RESET_B 0.473214 
31 *603:150 *1442:RESET_B 11.9375 
32 *603:149 *1443:RESET_B 9.15179 
33 *1443:RESET_B *603:182 16.1964 
34 *603:182 *603:189 12.6071 
35 *603:189 *603:191 2.85714 
36 *603:191 *603:196 7.08929 
37 *603:196 *1410:RESET_B 0.473214 
38 *603:196 *603:207 9.71429 
39 *603:207 *1430:RESET_B 12.2768 
40 *603:207 *1411:RESET_B 6.22321 
41 *603:191 *603:234 5.03571 
42 *603:234 *1412:RESET_B 0.473214 
43 *603:234 *1431:RESET_B 15.0089 
44 *603:189 *1409:RESET_B 9.97321 
45 *1409:RESET_B *603:260 0.21875 
46 *1409:RESET_B *603:273 17.6161 
47 *603:273 *603:276 7.91071 
48 *603:276 *1402:RESET_B 10.3393 
49 *603:276 *603:285 5.05357 
50 *603:285 *603:290 22.7857 
51 *603:290 *603:291 3.82143 
52 *603:291 *1404:RESET_B 8.74107 
53 *603:291 *603:306 7.35714 
54 *603:306 *1429:RESET_B 4.97321 
55 *603:306 *1403:RESET_B 11.1339 
56 *603:290 *603:324 0.732143 
57 *603:324 *1405:RESET_B 0.473214 
58 *603:324 *603:336 14.2321 
59 *603:336 *603:338 4.5 
60 *603:338 *1400:RESET_B 7.54464 
61 *603:338 *1406:RESET_B 13.7054 
62 *603:336 *603:363 2.60714 
63 *603:363 *1399:RESET_B 0.473214 
64 *603:363 *603:377 10.1429 
65 *603:377 *1428:RESET_B 0.473214 
66 *603:377 *603:390 16.3214 
67 *603:390 *1427:RESET_B 5.40179 
68 *603:390 *603:401 1.64286 
69 *603:401 *1398:RESET_B 4.5 
70 *603:401 *603:407 4.98214 
71 *603:407 *1397:RESET_B 4.5 
72 *603:407 *603:413 9.53571 
73 *603:413 *1394:RESET_B 4.5 
74 *603:413 *603:419 2.25 
75 *603:419 *603:422 12.4286 
76 *603:422 *1392:RESET_B 11.8036 
77 *603:422 *603:434 10.6964 
78 *603:434 *1415:RESET_B 7.05357 
79 *603:434 *603:446 17.1429 
80 *603:446 *603:448 1.33929 
81 *603:448 *1401:RESET_B 12.4375 
82 *603:448 *1407:RESET_B 11.6875 
83 *603:446 *1414:RESET_B 7.02679 
84 *603:419 *603:477 1.33929 
85 *603:477 *1393:RESET_B 5.38393 
86 *603:477 *603:486 6.80357 
87 *603:486 *1447:RESET_B 4.5 
88 *603:486 *603:492 1.94643 
89 *603:492 *1446:RESET_B 19.5893 
90 *603:492 *603:504 5.89286 
91 *603:504 *1416:RESET_B 4.5 
92 *603:504 *603:510 7.10714 
93 *603:510 *1417:RESET_B 4.5 
94 *1417:RESET_B *1450:RESET_B 7.41071 
95 *603:510 *603:540 16.3929 
96 *603:540 *603:544 5.51786 
97 *603:544 *1418:RESET_B 6.20536 
98 *603:544 *603:553 3.76786 
99 *603:553 *603:556 9.14286 
100 *603:556 *1460:RESET_B 22.7857 
101 *1460:RESET_B *603:571 3.08036 
102 *603:571 *603:575 9.96429 
103 *603:575 *1481:RESET_B 6.14286 
104 *603:575 *603:582 5.28571 
105 *603:582 *1482:RESET_B 4.5 
106 *603:582 *1483:RESET_B 9.48214 
107 *603:571 *1459:RESET_B 18.2946 
108 *603:556 *1454:RESET_B 0.901786 
109 *603:553 *603:616 6.19643 
110 *603:616 *1455:RESET_B 4.5 
111 *603:616 *1456:RESET_B 9.38393 
112 *603:544 *603:638 9.17313 
113 *603:638 *603:639 0.276786 
114 *603:639 *603:644 6.67857 
115 *603:644 *603:655 17.0893 
116 *603:655 *603:657 3.76786 
117 *603:657 *603:659 4.67857 
118 *603:659 *603:661 1.64286 
119 *603:661 *603:663 3.46429 
120 *603:663 *603:665 6.5 
121 *603:665 *603:667 3.16071 
122 *603:667 *603:671 5.82143 
123 *603:671 *603:673 1.64286 
124 *603:673 *603:679 8.98214 
125 *603:679 *1426:RESET_B 6.14286 
126 *603:679 *1425:RESET_B 4.5 
127 *603:673 *1424:RESET_B 4.5 
128 *603:671 *1396:RESET_B 4.5 
129 *603:667 *1395:RESET_B 4.5 
130 *603:665 *1423:RESET_B 4.5 
131 *603:663 *1422:RESET_B 4.5 
132 *603:661 *1421:RESET_B 4.5 
133 *603:659 *1448:RESET_B 7.02679 
134 *603:657 *1449:RESET_B 5.40179 
135 *603:655 *1420:RESET_B 4.5 
136 *603:644 *1452:RESET_B 0.473214 
137 *603:639 *1419:RESET_B 4.5 
138 *603:638 *603:745 4.52679 
139 *603:745 *1453:RESET_B 5.40179 
140 *603:745 *603:756 3.76786 
141 *603:756 *1457:RESET_B 6.14286 
142 *603:756 *1458:RESET_B 5.91964 
143 *603:540 *1451:RESET_B 4.5 
144 *603:285 *1408:RESET_B 0.901786 
145 *603:273 *1413:RESET_B 10.6696 
146 *603:182 *1444:RESET_B 0.366071 
147 *603:145 *603:800 4.5 
148 *603:800 *603:807 20.4464 
149 *603:807 *1439:RESET_B 0.473214 
150 *603:807 *603:817 3.01786 
151 *603:817 *1466:RESET_B 14.5804 
152 *603:817 *603:829 4.5 
153 *603:829 *603:833 15.875 
154 *603:833 *1435:RESET_B 0.883929 
155 *603:833 *603:842 9.48214 
156 *603:842 *1432:RESET_B 9.17857 
157 *603:842 *1433:RESET_B 4.5 
158 *603:829 *603:856 4.15179 
159 *603:856 *603:858 6.65179 
160 *603:858 *603:861 9.55357 
161 *603:861 *1438:RESET_B 0.473214 
162 *603:861 *603:875 9.32143 
163 *603:875 *1465:RESET_B 0.473214 
164 *603:875 *603:889 20.2857 
165 *603:889 *1437:RESET_B 14.8036 
166 *1437:RESET_B *603:907 11.5446 
167 *603:907 *603:909 4.98214 
168 *603:909 *1436:RESET_B 10.0179 
169 *603:909 *1468:RESET_B 4.5 
170 *603:907 *1467:RESET_B 4.5 
171 *603:889 *1464:RESET_B 5.23214 
172 *603:858 *603:938 10.9643 
173 *603:938 *603:947 9.16071 
174 *603:947 *1463:RESET_B 4.5 
175 *603:947 *1474:RESET_B 10.3661 
176 *603:938 *1473:RESET_B 0.473214 
177 *603:856 *1434:RESET_B 5.79464 
178 *603:800 *1469:RESET_B 1.61607 
179 *603:143 *1440:RESET_B 4.5 
180 *603:141 *1445:RESET_B 34.0179 
181 *603:128 *1472:RESET_B 5.38393 
182 *603:124 *1471:RESET_B 5.38393 
183 *603:114 *1475:RESET_B 4.5 
184 *603:109 *1476:RESET_B 8.18679 
185 *603:22 *1477:RESET_B 6.20536 
186 *603:14 *1486:RESET_B 5.79464 
187 *603:12 *1508:RESET_B 4.5 
188 *603:10 *1487:RESET_B 4.5 
*END

*D_NET *604 0.00766859
*CONN
*I *1190:A I *D sky130_fd_sc_hd__nand2_1
*I *1023:C I *D sky130_fd_sc_hd__nand4_1
*I *900:C2 I *D sky130_fd_sc_hd__a222oi_1
*I *1186:A I *D sky130_fd_sc_hd__nand2_1
*I *1439:Q O *D sky130_fd_sc_hd__dfrtp_1
*CAP
1 *1190:A 0
2 *1023:C 4.28658e-05
3 *900:C2 0.00238466
4 *1186:A 0.000166965
5 *1439:Q 0
6 *604:30 0.00313125
7 *604:22 0.0012398
8 *604:5 0.000703047
9 *900:C2 *900:B2 0
10 *900:C2 *903:A1 0
11 *900:C2 *908:C2 0
12 *900:C2 *914:C2 0
13 *900:C2 *915:C2 0
14 *900:C2 *943:A1 0
15 *900:C2 *951:B2 0
16 *900:C2 *1205:A 0
17 *900:C2 *612:24 0
18 *900:C2 *615:17 0
19 *900:C2 *627:27 0
20 *900:C2 *634:20 0
21 *900:C2 *696:30 0
22 *1023:C *914:C2 0
23 *1186:A *1189:A 0
24 *1186:A *1440:CLK 0
25 *1023:D *900:C2 0
26 *1023:D *1023:C 0
27 *1045:B *900:C2 0
28 *1191:A2 *604:22 0
29 *1191:B1 *1186:A 0
30 *1191:B1 *604:22 0
31 *1206:B *900:C2 0
32 *1278:B1 *604:22 0
33 *1445:RESET_B *604:30 0
34 *222:19 *900:C2 0
35 *236:30 *900:C2 0
36 *252:14 *900:C2 0
37 *284:26 *900:C2 0
38 *315:132 *604:30 0
39 *315:145 *604:22 0
40 *316:65 *1186:A 0
41 *316:65 *604:22 0
42 *316:74 *1186:A 0
43 *316:559 *1186:A 0
44 *360:558 *604:22 0
45 *603:143 *604:30 0
*RES
1 *1439:Q *604:5 13.8 
2 *604:5 *1186:A 17.3357 
3 *604:5 *604:22 15.9286 
4 *604:22 *604:30 28.2143 
5 *604:30 *900:C2 47.7385 
6 *604:30 *1023:C 14.8357 
7 *604:22 *1190:A 9.3 
*END

*D_NET *605 0.00662847
*CONN
*I *1216:A I *D sky130_fd_sc_hd__nand2_1
*I *1219:A I *D sky130_fd_sc_hd__nand2_1
*I *1016:B I *D sky130_fd_sc_hd__nor4b_1
*I *913:A1 I *D sky130_fd_sc_hd__a222oi_1
*I *1449:Q O *D sky130_fd_sc_hd__dfrtp_1
*CAP
1 *1216:A 0.000156472
2 *1219:A 2.55425e-05
3 *1016:B 2.0535e-05
4 *913:A1 0
5 *1449:Q 9.27203e-05
6 *605:47 0.00158858
7 *605:23 0.00260864
8 *605:13 0.00145592
9 *605:10 0.000680052
10 *1216:A *1130:A 0
11 *1219:A *606:8 0
12 *1219:A *606:17 0
13 *605:10 *1130:A 0
14 *605:10 *641:8 0
15 *605:13 *641:17 0
16 *605:23 *637:20 0
17 *605:23 *663:26 0
18 *605:23 *765:135 0
19 *605:47 *606:36 0
20 *605:47 *682:66 0
21 *903:A2 *605:47 0
22 *903:C1 *605:47 0
23 *912:B *605:47 0
24 *918:A1 *605:47 0
25 *918:B1 *605:47 0
26 *1039:C *605:47 0
27 *1041:D *605:47 0
28 *224:33 *605:47 0
29 *236:18 *605:47 0
30 *242:10 *605:47 0
31 *248:13 *605:47 0
32 *269:20 *605:47 0
33 *316:1038 *605:13 0
34 *360:358 *1219:A 0
35 *360:358 *605:23 0
*RES
1 *1449:Q *605:10 19.2368 
2 *605:10 *605:13 4.9704 
3 *605:13 *605:23 34.6518 
4 *605:23 *605:47 42.7634 
5 *605:47 *913:A1 9.3 
6 *605:23 *1016:B 9.72857 
7 *605:13 *1219:A 14.3804 
8 *605:10 *1216:A 18.2698 
*END

*D_NET *606 0.00649366
*CONN
*I *1220:A I *D sky130_fd_sc_hd__nand2_1
*I *1222:A I *D sky130_fd_sc_hd__nand2_1
*I *923:B2 I *D sky130_fd_sc_hd__a222oi_1
*I *1016:A I *D sky130_fd_sc_hd__nor4b_1
*I *1450:Q O *D sky130_fd_sc_hd__dfrtp_1
*CAP
1 *1220:A 0
2 *1222:A 2.0535e-05
3 *923:B2 1.1551e-05
4 *1016:A 2.0535e-05
5 *1450:Q 0.000311711
6 *606:36 0.00202898
7 *606:19 0.00229979
8 *606:17 0.000885601
9 *606:8 0.000914955
10 *606:17 *1420:CLK 0
11 *606:36 *660:52 0
12 *606:36 *682:66 0
13 *903:A2 *606:36 0
14 *903:C1 *606:36 0
15 *918:A2 *606:36 0
16 *924:C *606:36 0
17 *925:A3 *606:36 0
18 *935:B1 *606:36 0
19 *1122:A *606:17 0
20 *1219:A *606:8 0
21 *1219:A *606:17 0
22 *1221:A *606:17 0
23 *1221:B *606:17 0
24 *1450:RESET_B *606:8 0
25 *224:33 *606:36 0
26 *229:9 *606:36 0
27 *231:50 *606:36 0
28 *234:48 *606:36 0
29 *277:16 *606:36 0
30 *315:726 *1222:A 0
31 *315:726 *606:17 0
32 *315:726 *606:19 0
33 *315:735 *606:17 0
34 *316:1026 *606:17 0
35 *316:1038 *606:8 0
36 *316:1038 *606:17 0
37 *360:358 *606:8 0
38 *605:47 *606:36 0
*RES
1 *1450:Q *606:8 20.4964 
2 *606:8 *606:17 17.3929 
3 *606:17 *606:19 5.46429 
4 *606:19 *1016:A 9.72857 
5 *606:19 *606:36 47.0357 
6 *606:36 *923:B2 14.0411 
7 *606:17 *1222:A 9.72857 
8 *606:8 *1220:A 13.8 
*END

*D_NET *607 0.00385297
*CONN
*I *1226:A I *D sky130_fd_sc_hd__nand2_1
*I *1223:A I *D sky130_fd_sc_hd__nand2_1
*I *1016:D_N I *D sky130_fd_sc_hd__nor4b_1
*I *927:B2 I *D sky130_fd_sc_hd__a222oi_1
*I *1451:Q O *D sky130_fd_sc_hd__dfrtp_1
*CAP
1 *1226:A 0.000409203
2 *1223:A 7.23606e-05
3 *1016:D_N 0.000299667
4 *927:B2 0.000548029
5 *1451:Q 0
6 *607:9 0.00118759
7 *607:5 0.000669587
8 *607:4 0.000666533
9 *927:B2 *881:A_N 0
10 *927:B2 *881:B 0
11 *927:B2 *891:A 0
12 *927:B2 *927:A1 0
13 *1016:D_N *663:26 0
14 *1016:D_N *765:135 0
15 *1223:A *1124:A 0
16 *891:C *927:B2 0
17 *1227:A2 *1226:A 0
18 *230:7 *927:B2 0
19 *315:867 *1226:A 0
20 *360:364 *1226:A 0
21 *603:540 *1223:A 0
*RES
1 *1451:Q *607:4 9.3 
2 *607:4 *607:5 5.46429 
3 *607:5 *607:9 7.125 
4 *607:9 *927:B2 20.7687 
5 *607:9 *1016:D_N 25.1036 
6 *607:5 *1223:A 19.9429 
7 *607:4 *1226:A 17.8714 
*END

*D_NET *608 0.00514616
*CONN
*I *1225:A I *D sky130_fd_sc_hd__nand2_1
*I *1228:A I *D sky130_fd_sc_hd__nand2_1
*I *1016:C I *D sky130_fd_sc_hd__nor4b_1
*I *935:B2 I *D sky130_fd_sc_hd__a22oi_1
*I *1452:Q O *D sky130_fd_sc_hd__dfrtp_1
*CAP
1 *1225:A 7.44395e-05
2 *1228:A 0.000128597
3 *1016:C 6.6311e-06
4 *935:B2 0.000614937
5 *1452:Q 0
6 *608:36 0.000249241
7 *608:12 0.00232384
8 *608:4 0.00174848
9 *935:B2 *910:B2 0
10 *935:B2 *912:A 0
11 *935:B2 *922:C2 0
12 *935:B2 *1040:C 0
13 *935:B2 *1041:C 0
14 *935:B2 *638:18 0
15 *935:B2 *641:17 0
16 *935:B2 *765:135 0
17 *608:12 *639:11 0
18 *608:12 *640:20 0
19 *608:12 *725:10 0
20 *608:12 *765:135 0
21 *1039:D *935:B2 0
22 *1039:D *608:12 0
23 *1225:B *1225:A 0
24 *1225:B *608:36 0
25 *1227:B1 *608:12 0
26 *227:13 *935:B2 0
27 *316:1062 *1228:A 0
28 *316:1062 *608:12 0
29 *316:1064 *1228:A 0
30 *603:638 *608:12 0
*RES
1 *1452:Q *608:4 9.3 
2 *608:4 *608:12 25.1049 
3 *608:12 *935:B2 24.8437 
4 *608:12 *1016:C 13.9384 
5 *608:4 *608:36 0.964286 
6 *608:36 *1228:A 21.1571 
7 *608:36 *1225:A 10.9786 
*END

*D_NET *609 0.00610511
*CONN
*I *1232:A I *D sky130_fd_sc_hd__nand2_1
*I *1038:C_N I *D sky130_fd_sc_hd__nor3b_1
*I *941:A1 I *D sky130_fd_sc_hd__a22oi_1
*I *1229:A I *D sky130_fd_sc_hd__nand2_1
*I *1453:Q O *D sky130_fd_sc_hd__dfrtp_1
*CAP
1 *1232:A 0
2 *1038:C_N 0
3 *941:A1 0.0014326
4 *1229:A 1.21519e-05
5 *1453:Q 0.000203846
6 *609:26 0.00164016
7 *609:21 0.00140396
8 *609:8 0.0014124
9 *941:A1 *901:B2 0
10 *941:A1 *620:27 0
11 *941:A1 *728:30 0
12 *609:21 *610:14 0
13 *609:21 *677:11 0
14 *609:21 *725:10 0
15 *609:21 *726:11 0
16 *609:21 *765:125 0
17 *609:26 *1454:CLK 0
18 *609:26 *652:16 0
19 *609:26 *779:8 0
20 *893:C *941:A1 0
21 *922:B1 *941:A1 0
22 *1232:B *609:21 0
23 *1232:B *609:26 0
24 *1233:A2 *609:26 0
25 *1244:B *609:8 0
26 *229:32 *941:A1 0
27 *229:40 *941:A1 0
28 *232:20 *941:A1 0
29 *360:391 *609:21 0
30 *360:399 *609:21 0
31 *603:638 *609:21 0
32 *603:745 *609:8 0
33 *603:756 *609:8 0
*RES
1 *1453:Q *609:8 18.2732 
2 *609:8 *1229:A 14.0768 
3 *609:8 *609:21 11.3957 
4 *609:21 *609:26 9.125 
5 *609:26 *941:A1 48.6036 
6 *609:26 *1038:C_N 9.3 
7 *609:21 *1232:A 13.8 
*END

*D_NET *610 0.00713508
*CONN
*I *1235:A I *D sky130_fd_sc_hd__nand2_1
*I *1231:A I *D sky130_fd_sc_hd__nand2_1
*I *949:A1 I *D sky130_fd_sc_hd__a22oi_1
*I *1040:C I *D sky130_fd_sc_hd__nand4b_1
*I *1454:Q O *D sky130_fd_sc_hd__dfrtp_1
*CAP
1 *1235:A 0.000141178
2 *1231:A 0
3 *949:A1 0.00156864
4 *1040:C 0.000627154
5 *1454:Q 0.000222463
6 *610:48 0.000280354
7 *610:14 0.00306472
8 *610:7 0.00123056
9 *949:A1 uo_out[5] 0
10 *949:A1 *950:B2 0
11 *949:A1 *679:34 0
12 *949:A1 *691:36 0
13 *1040:C *906:A1 0
14 *1040:C *922:A1 0
15 *610:14 *640:20 0
16 *610:14 *663:26 0
17 *610:14 *725:10 0
18 *610:14 *726:11 0
19 *610:14 *727:11 0
20 *610:14 *765:125 0
21 *610:14 *778:20 0
22 *935:B2 *1040:C 0
23 *1233:B1 *610:14 0
24 *1233:B1 *610:48 0
25 *1235:B *1235:A 0
26 *1236:A2 *1235:A 0
27 *269:20 *949:A1 0
28 *284:26 *949:A1 0
29 *315:747 *1235:A 0
30 *315:751 *1235:A 0
31 *316:945 *610:48 0
32 *316:950 *610:14 0
33 *316:950 *610:48 0
34 *360:394 *610:48 0
35 *360:668 *610:14 0
36 *360:668 *610:48 0
37 *603:556 *610:7 0
38 *609:21 *610:14 0
*RES
1 *1454:Q *610:7 18.4429 
2 *610:7 *610:14 13.8143 
3 *610:14 *1040:C 23.3737 
4 *610:14 *949:A1 22.8891 
5 *610:7 *610:48 7.66071 
6 *610:48 *1231:A 9.3 
7 *610:48 *1235:A 12.3357 
*END

*D_NET *611 0.00368012
*CONN
*I *907:B2 I *D sky130_fd_sc_hd__a222oi_1
*I *1045:A I *D sky130_fd_sc_hd__or4_1
*I *1192:A I *D sky130_fd_sc_hd__nand2_1
*I *1189:A I *D sky130_fd_sc_hd__nand2_1
*I *1440:Q O *D sky130_fd_sc_hd__dfrtp_1
*CAP
1 *907:B2 0.00035594
2 *1045:A 0
3 *1192:A 0.00019266
4 *1189:A 0.000122782
5 *1440:Q 0
6 *611:33 0.00114782
7 *611:9 0.000692238
8 *611:4 0.00116868
9 *907:B2 *937:C2 0
10 *907:B2 *945:B2 0
11 *907:B2 *616:25 0
12 *1192:A *1469:CLK 0
13 *611:9 *656:25 0
14 *611:33 *937:C2 0
15 *611:33 *656:33 0
16 *909:C *907:B2 0
17 *937:C1 *907:B2 0
18 *1045:B *611:33 0
19 *1045:C *907:B2 0
20 *1045:C *611:33 0
21 *1045:D *611:33 0
22 *1186:A *1189:A 0
23 *1205:B *611:33 0
24 *1278:A2 *611:9 0
25 *1278:A2 *611:33 0
26 *1469:D *1192:A 0
27 *315:133 *1189:A 0
28 *315:133 *611:9 0
29 *315:194 *1192:A 0
30 *315:364 *611:9 0
31 *359:31 *907:B2 0
32 *360:452 *1192:A 0
*RES
1 *1440:Q *611:4 9.3 
2 *611:4 *611:9 17.0357 
3 *611:9 *1189:A 11.925 
4 *611:9 *1192:A 22.675 
5 *611:4 *611:33 16.5893 
6 *611:33 *1045:A 9.3 
7 *611:33 *907:B2 26.2375 
*END

*D_NET *612 0.00522928
*CONN
*I *1193:A I *D sky130_fd_sc_hd__nand2_1
*I *914:C2 I *D sky130_fd_sc_hd__a222oi_1
*I *1022:B I *D sky130_fd_sc_hd__nor4b_1
*I *1195:A I *D sky130_fd_sc_hd__nand2_1
*I *1441:Q O *D sky130_fd_sc_hd__dfrtp_1
*CAP
1 *1193:A 0.000336261
2 *914:C2 0.000876036
3 *1022:B 0
4 *1195:A 0.000474872
5 *1441:Q 0
6 *612:24 0.00168435
7 *612:18 0.00126373
8 *612:4 0.000594031
9 *914:C2 *907:C1 0
10 *914:C2 *914:A1 0
11 *914:C2 *923:C2 0
12 *914:C2 *948:C2 0
13 *914:C2 *1205:A 0
14 *914:C2 *689:38 0
15 *1193:A *1828:A 0
16 *1193:A *767:5 0
17 *1193:A *767:10 0
18 *1195:A *1443:CLK 0
19 *612:24 *900:B2 0
20 *612:24 *923:C2 0
21 *612:24 *613:24 0
22 *612:24 *615:17 0
23 *612:24 *685:33 0
24 *612:24 *699:25 0
25 *900:C2 *914:C2 0
26 *900:C2 *612:24 0
27 *907:B1 *914:C2 0
28 *907:C2 *914:C2 0
29 *914:C1 *914:C2 0
30 *1023:C *914:C2 0
31 *1045:B *914:C2 0
32 *1164:A1 *612:18 0
33 *1194:B *1193:A 0
34 *1195:B *1195:A 0
35 *315:199 *1195:A 0
36 *603:149 *612:18 0
*RES
1 *1441:Q *612:4 9.3 
2 *612:4 *1195:A 19.3357 
3 *612:4 *612:18 7.20536 
4 *612:18 *612:24 11.256 
5 *612:24 *1022:B 13.8 
6 *612:24 *914:C2 33.0946 
7 *612:18 *1193:A 20.8179 
*END

*D_NET *613 0.00509595
*CONN
*I *1198:A I *D sky130_fd_sc_hd__nand2_1
*I *923:C2 I *D sky130_fd_sc_hd__a222oi_1
*I *1022:A I *D sky130_fd_sc_hd__nor4b_1
*I *1196:A I *D sky130_fd_sc_hd__nand2_1
*I *1442:Q O *D sky130_fd_sc_hd__dfrtp_1
*CAP
1 *1198:A 2.0535e-05
2 *923:C2 0.00104882
3 *1022:A 7.27282e-06
4 *1196:A 0.000268836
5 *1442:Q 0
6 *613:24 0.00192534
7 *613:17 0.00122304
8 *613:4 0.000602102
9 *923:C2 *914:B2 0
10 *923:C2 *921:B2 0
11 *923:C2 *930:C2 0
12 *923:C2 *948:C2 0
13 *923:C2 *1204:A 0
14 *923:C2 *657:35 0
15 *1198:A *766:20 0
16 *613:24 *614:28 0
17 *613:24 *615:17 0
18 *613:24 *633:22 0
19 *613:24 *766:20 0
20 *914:C2 *923:C2 0
21 *921:A2 *923:C2 0
22 *921:B1 *923:C2 0
23 *923:B1 *923:C2 0
24 *923:C1 *923:C2 0
25 *924:C *923:C2 0
26 *1100:B *613:24 0
27 *1164:A1 *1196:A 0
28 *1198:B *613:17 0
29 *1200:A *613:17 0
30 *1442:RESET_B *613:17 0
31 *1444:D *613:24 0
32 *1445:RESET_B *923:C2 0
33 *315:411 *613:24 0
34 *316:92 *1196:A 0
35 *316:110 *1196:A 0
36 *316:368 *613:24 0
37 *345:11 *923:C2 0
38 *603:182 *613:24 0
39 *603:189 *613:24 0
40 *612:24 *923:C2 0
41 *612:24 *613:24 0
*RES
1 *1442:Q *613:4 9.3 
2 *613:4 *1196:A 24.0679 
3 *613:4 *613:17 7.01786 
4 *613:17 *613:24 23.2321 
5 *613:24 *1022:A 13.9518 
6 *613:24 *923:C2 36.8268 
7 *613:17 *1198:A 9.72857 
*END

*D_NET *614 0.00330906
*CONN
*I *930:C2 I *D sky130_fd_sc_hd__a222oi_1
*I *1022:D_N I *D sky130_fd_sc_hd__nor4b_1
*I *1202:A I *D sky130_fd_sc_hd__nand2_1
*I *1199:A I *D sky130_fd_sc_hd__nand2_1
*I *1443:Q O *D sky130_fd_sc_hd__dfrtp_1
*CAP
1 *930:C2 0.00102764
2 *1022:D_N 0
3 *1202:A 0
4 *1199:A 9.88248e-05
5 *1443:Q 8.56922e-05
6 *614:28 0.00140798
7 *614:9 0.000160858
8 *614:8 0.000528067
9 *930:C2 *900:B2 0
10 *930:C2 *951:B2 0
11 *614:8 *696:30 0
12 *614:8 *698:36 0
13 *614:8 *699:25 0
14 *923:C2 *930:C2 0
15 *1202:B *1199:A 0
16 *1203:A2 *614:8 0
17 *1204:B *614:28 0
18 *252:14 *930:C2 0
19 *315:408 *1199:A 0
20 *315:408 *614:9 0
21 *315:408 *614:28 0
22 *316:119 *1199:A 0
23 *316:119 *614:9 0
24 *316:119 *614:28 0
25 *613:24 *614:28 0
*RES
1 *1443:Q *614:8 20.2464 
2 *614:8 *614:9 1.35714 
3 *614:9 *1199:A 11.5143 
4 *614:9 *1202:A 9.3 
5 *614:8 *614:28 12.625 
6 *614:28 *1022:D_N 13.8 
7 *614:28 *930:C2 27.0433 
*END

*D_NET *615 0.00217022
*CONN
*I *937:C2 I *D sky130_fd_sc_hd__a222oi_1
*I *1204:A I *D sky130_fd_sc_hd__nand2_1
*I *1022:C I *D sky130_fd_sc_hd__nor4b_1
*I *1201:A I *D sky130_fd_sc_hd__nand2_1
*I *1444:Q O *D sky130_fd_sc_hd__dfrtp_1
*CAP
1 *937:C2 0.000413805
2 *1204:A 4.5599e-05
3 *1022:C 0
4 *1201:A 8.4707e-05
5 *1444:Q 0.000112474
6 *615:26 0.000657909
7 *615:17 0.000428525
8 *615:6 0.000427201
9 *937:C2 *937:A1 0
10 *937:C2 *616:25 0
11 *615:6 *696:30 0
12 *615:17 *696:30 0
13 *900:C2 *615:17 0
14 *907:B2 *937:C2 0
15 *923:C2 *1204:A 0
16 *937:B1 *937:C2 0
17 *1100:B *615:6 0
18 *1204:B *615:26 0
19 *1206:A *615:26 0
20 *315:411 *615:17 0
21 *345:11 *937:C2 0
22 *359:31 *937:C2 0
23 *611:33 *937:C2 0
24 *612:24 *615:17 0
25 *613:24 *615:17 0
*RES
1 *1444:Q *615:6 16.3536 
2 *615:6 *1201:A 15.5679 
3 *615:6 *615:17 9.78571 
4 *615:17 *1022:C 9.3 
5 *615:17 *615:26 8.64286 
6 *615:26 *1204:A 14.8357 
7 *615:26 *937:C2 22.8625 
*END

*D_NET *616 0.00542579
*CONN
*I *1040:A_N I *D sky130_fd_sc_hd__nand4b_1
*I *1207:A I *D sky130_fd_sc_hd__nand2_1
*I *942:C2 I *D sky130_fd_sc_hd__a222oi_1
*I *1205:A I *D sky130_fd_sc_hd__nand2_1
*I *1445:Q O *D sky130_fd_sc_hd__dfrtp_1
*CAP
1 *1040:A_N 0.000208164
2 *1207:A 0.000191411
3 *942:C2 7.62721e-05
4 *1205:A 0.000235746
5 *1445:Q 0
6 *616:39 0.00148045
7 *616:25 0.00207757
8 *616:4 0.00115618
9 *1040:A_N *620:41 0
10 *616:25 *907:A1 0
11 *616:25 *937:A1 0
12 *616:25 *945:B2 0
13 *616:39 *900:A1 0
14 *616:39 *906:A1 0
15 *616:39 *636:23 0
16 *900:C2 *1205:A 0
17 *907:B2 *616:25 0
18 *909:C *616:25 0
19 *909:C *616:39 0
20 *914:C2 *1205:A 0
21 *937:C2 *616:25 0
22 *938:B *616:25 0
23 *938:B *616:39 0
24 *1045:C *616:25 0
25 *1045:C *616:39 0
26 *224:51 *1040:A_N 0
27 *284:26 *616:39 0
28 *345:11 *1205:A 0
29 *345:11 *616:25 0
30 *360:5 *1207:A 0
31 *360:21 *1207:A 0
*RES
1 *1445:Q *616:4 9.3 
2 *616:4 *1205:A 23.3536 
3 *616:4 *616:25 15.8648 
4 *616:25 *942:C2 18.9243 
5 *616:25 *616:39 7.3486 
6 *616:39 *1207:A 17.8089 
7 *616:39 *1040:A_N 18.5589 
*END

*D_NET *617 0.00310803
*CONN
*I *1211:A I *D sky130_fd_sc_hd__nand2_1
*I *1039:A I *D sky130_fd_sc_hd__nand4_1
*I *1208:A I *D sky130_fd_sc_hd__nand2_1
*I *951:C2 I *D sky130_fd_sc_hd__a222oi_1
*I *1446:Q O *D sky130_fd_sc_hd__dfrtp_1
*CAP
1 *1211:A 8.06993e-05
2 *1039:A 0.00017923
3 *1208:A 0
4 *951:C2 0.000794399
5 *1446:Q 0.000180109
6 *617:11 0.000855149
7 *617:7 0.000498806
8 *617:5 0.000519635
9 *951:C2 *943:A1 0
10 *951:C2 *951:B2 0
11 *951:C2 *1042:A 0
12 *951:C2 *1446:CLK 0
13 *951:C2 *634:36 0
14 *951:C2 *636:23 0
15 *951:C2 *644:22 0
16 *1039:A *765:135 0
17 *1046:C *1039:A 0
18 *1207:B *951:C2 0
19 *1207:B *1039:A 0
20 *1208:B *617:7 0
21 *1208:B *617:11 0
22 *1209:B *1039:A 0
23 *1210:B *617:5 0
24 *1212:A2 *1211:A 0
25 *1212:B1 *617:5 0
26 *1446:D *1039:A 0
27 *1446:D *617:7 0
28 *224:63 *951:C2 0
29 *236:30 *951:C2 0
30 *315:680 *1211:A 0
*RES
1 *1446:Q *617:5 13.1214 
2 *617:5 *617:7 5.46429 
3 *617:7 *617:11 1.26786 
4 *617:11 *951:C2 30.6785 
5 *617:11 *1208:A 9.3 
6 *617:7 *1039:A 22.3714 
7 *617:5 *1211:A 20.0679 
*END

*D_NET *618 0.00329743
*CONN
*I *1040:B I *D sky130_fd_sc_hd__nand4b_1
*I *899:A1 I *D sky130_fd_sc_hd__a22oi_1
*I *1210:A I *D sky130_fd_sc_hd__nand2_1
*I *1214:A I *D sky130_fd_sc_hd__nand2_1
*I *1447:Q O *D sky130_fd_sc_hd__dfrtp_1
*CAP
1 *1040:B 0
2 *899:A1 0.000284496
3 *1210:A 0
4 *1214:A 0.00011551
5 *1447:Q 0.000284108
6 *618:37 0.0012491
7 *618:14 0.00011551
8 *618:12 0.00124871
9 *899:A1 *910:A1 0
10 *899:A1 *663:27 0
11 *618:12 *1416:CLK 0
12 *618:12 *775:37 0
13 *618:37 *906:A1 0
14 *618:37 *1039:B 0
15 *618:37 *1118:A 0
16 *618:37 *619:18 0
17 *618:37 *620:41 0
18 *618:37 *636:23 0
19 *1046:C *618:37 0
20 *1214:B *618:37 0
21 *1215:A2 *1214:A 0
22 *1446:RESET_B *1214:A 0
23 *1446:RESET_B *618:12 0
24 *233:11 *899:A1 0
25 *316:999 *618:37 0
26 *316:1016 *618:37 0
27 *603:504 *618:12 0
*RES
1 *1447:Q *618:12 20.1214 
2 *618:12 *618:14 4.5 
3 *618:14 *1214:A 11.925 
4 *618:14 *1210:A 9.3 
5 *618:12 *618:37 19.3721 
6 *618:37 *899:A1 15.175 
7 *618:37 *1040:B 9.3 
*END

*D_NET *619 0.00587048
*CONN
*I *1217:A I *D sky130_fd_sc_hd__nand2_1
*I *1039:B I *D sky130_fd_sc_hd__nand4_1
*I *906:A1 I *D sky130_fd_sc_hd__a22oi_1
*I *1213:A I *D sky130_fd_sc_hd__nand2_1
*I *1448:Q O *D sky130_fd_sc_hd__dfrtp_1
*CAP
1 *1217:A 0.000374807
2 *1039:B 5.22648e-05
3 *906:A1 0.0011633
4 *1213:A 7.23016e-05
5 *1448:Q 0
6 *619:18 0.00214759
7 *619:7 0.00134487
8 *619:4 0.000715347
9 *906:A1 *899:B2 0
10 *906:A1 *900:A1 0
11 *906:A1 *910:B2 0
12 *906:A1 *922:A1 0
13 *906:A1 *950:B2 0
14 *906:A1 *636:23 0
15 *906:A1 *641:17 0
16 *906:A1 *641:40 0
17 *1039:B *765:135 0
18 *1213:A *775:47 0
19 *1213:A *775:54 0
20 *1217:A *1132:A 0
21 *619:7 *1448:CLK 0
22 *619:18 *641:17 0
23 *903:C1 *906:A1 0
24 *1039:C *1039:B 0
25 *1039:D *1039:B 0
26 *1040:C *906:A1 0
27 *1215:A1 *1213:A 0
28 *1215:A1 *619:18 0
29 *1448:D *619:7 0
30 *1448:RESET_B *1217:A 0
31 *1448:RESET_B *619:7 0
32 *230:43 *906:A1 0
33 *284:26 *906:A1 0
34 *316:1016 *619:18 0
35 *316:1026 *1213:A 0
36 *316:1026 *619:18 0
37 *603:659 *1217:A 0
38 *616:39 *906:A1 0
39 *618:37 *906:A1 0
40 *618:37 *1039:B 0
41 *618:37 *619:18 0
*RES
1 *1448:Q *619:4 9.3 
2 *619:4 *619:7 11.6071 
3 *619:7 *1213:A 15.4429 
4 *619:7 *619:18 9.3486 
5 *619:18 *906:A1 25.8482 
6 *619:18 *1039:B 18.3975 
7 *619:4 *1217:A 26.4071 
*END

*D_NET *620 0.00707673
*CONN
*I *901:A1 I *D sky130_fd_sc_hd__a222oi_1
*I *1047:A I *D sky130_fd_sc_hd__nor3_1
*I *1036:A I *D sky130_fd_sc_hd__nor4_1
*I *1003:A I *D sky130_fd_sc_hd__nand2_1
*I *1391:Q O *D sky130_fd_sc_hd__dfstp_2
*CAP
1 *901:A1 9.49745e-05
2 *1047:A 0.000183104
3 *1036:A 0
4 *1003:A 0.000350257
5 *1391:Q 9.43834e-06
6 *620:41 0.00173871
7 *620:27 0.00299557
8 *620:6 0.00170468
9 *1047:A *1019:B 0
10 *1047:A *1019:D 0
11 *1047:A *642:19 0
12 *620:27 *922:B2 0
13 *620:27 *1318:A 0
14 *620:27 *671:34 0
15 *620:27 *672:11 0
16 *620:27 *777:37 0
17 *620:27 *777:46 0
18 *620:41 *910:B2 0
19 *620:41 *912:A 0
20 *620:41 *922:C2 0
21 *620:41 *930:A1 0
22 *620:41 *935:A1 0
23 *620:41 *1029:A 0
24 *620:41 *638:18 0
25 *620:41 *639:18 0
26 *620:41 *640:20 0
27 *620:41 *641:17 0
28 *620:41 *725:50 0
29 *894:A *620:41 0
30 *901:A2 *901:A1 0
31 *920:A2 *620:41 0
32 *941:A1 *620:27 0
33 *998:B1 *620:27 0
34 *1036:B *620:41 0
35 *1039:D *620:41 0
36 *1040:A_N *620:41 0
37 *1047:B *1047:A 0
38 *1047:C *620:41 0
39 *1048:B1 *1047:A 0
40 *1207:B *620:41 0
41 *1209:A *620:41 0
42 *1315:B *620:27 0
43 *1317:A *620:27 0
44 *1318:B *1003:A 0
45 *1318:B *620:6 0
46 *1319:B *620:27 0
47 *1320:B1 *620:27 0
48 *1323:B *1003:A 0
49 *1483:D *620:27 0
50 *220:6 *620:41 0
51 *222:14 *620:41 0
52 *224:20 *620:27 0
53 *224:51 *620:41 0
54 *228:19 *901:A1 0
55 *228:19 *620:27 0
56 *228:19 *620:41 0
57 *229:29 *620:27 0
58 *233:11 *620:41 0
59 *234:27 *620:41 0
60 *242:20 *1003:A 0
61 *618:37 *620:41 0
*RES
1 *1391:Q *620:6 14.0768 
2 *620:6 *1003:A 21.3804 
3 *620:6 *620:27 32.1164 
4 *620:27 *620:41 36.8472 
5 *620:41 *1036:A 9.3 
6 *620:41 *1047:A 13.1214 
7 *620:27 *901:A1 15.8446 
*END

*D_NET *621 0.00507987
*CONN
*I *1072:A I *D sky130_fd_sc_hd__nand2_1
*I *915:C2 I *D sky130_fd_sc_hd__a222oi_1
*I *1020:A I *D sky130_fd_sc_hd__nand4_1
*I *1076:A I *D sky130_fd_sc_hd__nand2_1
*I *1401:Q O *D sky130_fd_sc_hd__dfrtp_1
*CAP
1 *1072:A 0.000167385
2 *915:C2 0.00074256
3 *1020:A 0.000505698
4 *1076:A 7.52951e-05
5 *1401:Q 0
6 *621:7 0.00107597
7 *621:5 0.00179156
8 *621:4 0.000721403
9 *915:C2 *915:B2 0
10 *915:C2 *951:B2 0
11 *915:C2 *1025:C 0
12 *915:C2 *626:12 0
13 *915:C2 *626:32 0
14 *915:C2 *627:8 0
15 *915:C2 *627:20 0
16 *915:C2 *627:27 0
17 *915:C2 *692:23 0
18 *1020:A *936:A1 0
19 *1020:A *1108:A 0
20 *1020:A *622:25 0
21 *1020:A *695:23 0
22 *1072:A *649:23 0
23 *621:5 *1401:CLK 0
24 *900:C2 *915:C2 0
25 *1077:B1 *1020:A 0
26 *1092:A2 *915:C2 0
27 *1092:B1 *915:C2 0
28 *1401:D *1072:A 0
29 *1401:D *621:5 0
30 *1401:RESET_B *1072:A 0
31 *1408:D *1020:A 0
32 *1413:RESET_B *1020:A 0
33 *315:481 *1076:A 0
34 *360:79 *915:C2 0
*RES
1 *1401:Q *621:4 9.3 
2 *621:4 *621:5 11.625 
3 *621:5 *621:7 10.3929 
4 *621:7 *1076:A 10.8714 
5 *621:7 *1020:A 29.6571 
6 *621:5 *915:C2 35.0768 
7 *621:4 *1072:A 22.0143 
*END

*D_NET *622 0.00286955
*CONN
*I *1075:A I *D sky130_fd_sc_hd__nand2_1
*I *1020:B I *D sky130_fd_sc_hd__nand4_1
*I *919:A I *D sky130_fd_sc_hd__nand2_1
*I *1079:A I *D sky130_fd_sc_hd__nand2_1
*I *1402:Q O *D sky130_fd_sc_hd__dfrtp_1
*CAP
1 *1075:A 0
2 *1020:B 4.23535e-05
3 *919:A 0.000347283
4 *1079:A 0.000155339
5 *1402:Q 0.000363213
6 *622:25 0.000754743
7 *622:20 0.000526585
8 *622:7 0.000680031
9 *919:A *929:C2 0
10 *919:A *933:A 0
11 *919:A *936:A1 0
12 *1020:B *1020:C 0
13 *1079:A *624:10 0
14 *1079:A *772:16 0
15 *1079:A *772:18 0
16 *622:7 *1097:A 0
17 *622:7 *628:17 0
18 *622:20 *624:10 0
19 *622:20 *772:15 0
20 *622:20 *772:16 0
21 *622:25 *933:A 0
22 *622:25 *936:A1 0
23 *622:25 *1108:A 0
24 *622:25 *623:40 0
25 *622:25 *634:6 0
26 *931:A *919:A 0
27 *1020:A *622:25 0
28 *1034:B *1020:B 0
29 *1413:RESET_B *622:25 0
30 *252:14 *919:A 0
31 *345:11 *919:A 0
32 *603:273 *622:7 0
*RES
1 *1402:Q *622:7 21.3179 
2 *622:7 *1079:A 17.2643 
3 *622:7 *622:20 8.03571 
4 *622:20 *622:25 17.3214 
5 *622:25 *919:A 26.0143 
6 *622:25 *1020:B 10.2464 
7 *622:20 *1075:A 9.3 
*END

*D_NET *623 0.00425234
*CONN
*I *1020:C I *D sky130_fd_sc_hd__nand4_1
*I *929:C2 I *D sky130_fd_sc_hd__a222oi_1
*I *1078:A I *D sky130_fd_sc_hd__nand2_1
*I *1082:A I *D sky130_fd_sc_hd__nand2_1
*I *1403:Q O *D sky130_fd_sc_hd__dfrtp_1
*CAP
1 *1020:C 4.23535e-05
2 *929:C2 0.000573921
3 *1078:A 4.53482e-05
4 *1082:A 0.000605063
5 *1403:Q 0.000105242
6 *623:40 0.00127417
7 *623:29 0.000799589
8 *623:9 0.000806654
9 *929:C2 *914:A1 0
10 *929:C2 *929:A1 0
11 *929:C2 *929:B2 0
12 *929:C2 *933:A 0
13 *929:C2 *1020:D 0
14 *1082:A *1081:A 0
15 *1082:A *1405:CLK 0
16 *1082:A *624:10 0
17 *1082:A *695:12 0
18 *623:29 *624:10 0
19 *623:40 *933:A 0
20 *623:40 *624:10 0
21 *623:40 *695:23 0
22 *919:A *929:C2 0
23 *929:C1 *929:C2 0
24 *1020:B *1020:C 0
25 *1034:B *929:C2 0
26 *1034:B *1020:C 0
27 *1075:B *623:40 0
28 *1077:B1 *623:40 0
29 *1081:B *1082:A 0
30 *1082:B *1082:A 0
31 *1158:A *1082:A 0
32 *1158:B *1082:A 0
33 *1402:D *623:40 0
34 *1403:RESET_B *623:9 0
35 *1413:RESET_B *623:40 0
36 *1429:D *1082:A 0
37 *315:487 *1082:A 0
38 *315:487 *623:9 0
39 *315:487 *623:29 0
40 *315:487 *623:40 0
41 *315:495 *623:9 0
42 *316:400 *1082:A 0
43 *316:487 *1078:A 0
44 *360:190 *1078:A 0
45 *622:25 *623:40 0
*RES
1 *1403:Q *623:9 15.9964 
2 *623:9 *1082:A 36.3357 
3 *623:9 *623:29 2.25 
4 *623:29 *1078:A 14.7464 
5 *623:29 *623:40 19.5 
6 *623:40 *929:C2 30.9161 
7 *623:40 *1020:C 10.2464 
*END

*D_NET *624 0.00411997
*CONN
*I *1085:A I *D sky130_fd_sc_hd__nand2_1
*I *1081:A I *D sky130_fd_sc_hd__nand2_1
*I *1020:D I *D sky130_fd_sc_hd__nand4_1
*I *933:A I *D sky130_fd_sc_hd__nand2_1
*I *1404:Q O *D sky130_fd_sc_hd__dfrtp_1
*CAP
1 *1085:A 0.000181821
2 *1081:A 0.000323175
3 *1020:D 6.20329e-05
4 *933:A 0.000364162
5 *1404:Q 0
6 *624:38 0.00065705
7 *624:10 0.00140293
8 *624:4 0.00112879
9 *933:A *914:A1 0
10 *933:A *923:A1 0
11 *933:A *629:30 0
12 *624:10 *1413:CLK 0
13 *624:10 *1429:CLK 0
14 *624:10 *772:16 0
15 *624:10 *772:18 0
16 *624:10 *772:20 0
17 *624:38 *696:10 0
18 *919:A *933:A 0
19 *929:C2 *933:A 0
20 *929:C2 *1020:D 0
21 *933:B *933:A 0
22 *1034:B *933:A 0
23 *1034:B *1020:D 0
24 *1075:B *624:10 0
25 *1079:A *624:10 0
26 *1082:A *1081:A 0
27 *1082:A *624:10 0
28 *1082:B *1081:A 0
29 *1083:A2 *1081:A 0
30 *1085:B *1085:A 0
31 *1086:A1 *1085:A 0
32 *1110:B1 *624:10 0
33 *1158:A *1081:A 0
34 *1158:A *1085:A 0
35 *1158:A *624:38 0
36 *1158:B *1081:A 0
37 *1402:D *624:10 0
38 *1404:RESET_B *624:10 0
39 *1404:RESET_B *624:38 0
40 *1405:D *1085:A 0
41 *1429:D *624:10 0
42 *1429:D *624:38 0
43 *233:75 *933:A 0
44 *316:414 *1085:A 0
45 *316:425 *1085:A 0
46 *345:11 *933:A 0
47 *622:20 *624:10 0
48 *622:25 *933:A 0
49 *623:29 *624:10 0
50 *623:40 *933:A 0
51 *623:40 *624:10 0
*RES
1 *1404:Q *624:4 9.3 
2 *624:4 *624:10 30.9107 
3 *624:10 *933:A 26.3804 
4 *624:10 *1020:D 10.6571 
5 *624:4 *624:38 8 
6 *624:38 *1081:A 20.8 
7 *624:38 *1085:A 17.6571 
*END

*D_NET *625 0.00369645
*CONN
*I *1084:A I *D sky130_fd_sc_hd__nand2_1
*I *940:B2 I *D sky130_fd_sc_hd__a22oi_1
*I *1033:A I *D sky130_fd_sc_hd__nand2_1
*I *1088:A I *D sky130_fd_sc_hd__nand2_1
*I *1405:Q O *D sky130_fd_sc_hd__dfrtp_1
*CAP
1 *1084:A 0.000140592
2 *940:B2 0.000297347
3 *1033:A 8.34235e-05
4 *1088:A 0.000203639
5 *1405:Q 0.00016043
6 *625:21 0.00119774
7 *625:10 0.00116643
8 *625:5 0.000446849
9 *940:B2 *905:B2 0
10 *940:B2 *908:A1 0
11 *940:B2 *908:C2 0
12 *940:B2 *772:11 0
13 *1033:A *930:B2 0
14 *1088:A *1406:CLK 0
15 *1088:A *696:10 0
16 *625:21 *1032:A 0
17 *625:21 *628:36 0
18 *625:21 *648:18 0
19 *625:21 *695:23 0
20 *625:21 *772:11 0
21 *1034:D *1033:A 0
22 *1088:B *625:10 0
23 *1089:A2 *1088:A 0
24 *1093:B *625:21 0
25 *1095:A2 *625:21 0
26 *1095:B1 *625:21 0
27 *1403:RESET_B *625:21 0
28 *1405:D *1084:A 0
29 *273:19 *940:B2 0
30 *315:502 *1084:A 0
31 *315:502 *625:21 0
32 *315:527 *625:21 0
33 *316:487 *625:21 0
34 *603:290 *1084:A 0
35 *603:290 *625:10 0
36 *603:290 *625:21 0
37 *603:291 *625:5 0
38 *603:291 *625:10 0
39 *603:306 *1084:A 0
40 *603:306 *625:10 0
41 *603:336 *625:5 0
*RES
1 *1405:Q *625:5 12.7107 
2 *625:5 *625:10 7.69643 
3 *625:10 *1088:A 18.05 
4 *625:10 *625:21 18.6429 
5 *625:21 *1033:A 15.6036 
6 *625:21 *940:B2 20.5589 
7 *625:5 *1084:A 21.4607 
*END

*D_NET *626 0.00523935
*CONN
*I *1087:A I *D sky130_fd_sc_hd__nand2_1
*I *950:C2 I *D sky130_fd_sc_hd__a222oi_1
*I *1035:C I *D sky130_fd_sc_hd__nand4_1
*I *1091:A I *D sky130_fd_sc_hd__nand2_1
*I *1406:Q O *D sky130_fd_sc_hd__dfrtp_1
*CAP
1 *1087:A 0.000174727
2 *950:C2 0.000703355
3 *1035:C 0
4 *1091:A 2.56688e-05
5 *1406:Q 0.000239147
6 *626:32 0.0016246
7 *626:12 0.00150245
8 *626:5 0.00096941
9 *950:C2 *900:A1 0
10 *950:C2 *950:A1 0
11 *950:C2 *635:20 0
12 *950:C2 *765:141 0
13 *626:32 *915:B2 0
14 *626:32 *1025:A 0
15 *626:32 *1028:A 0
16 *626:32 *1035:D 0
17 *626:32 *627:27 0
18 *626:32 *692:23 0
19 *900:B1 *950:C2 0
20 *915:C2 *626:12 0
21 *915:C2 *626:32 0
22 *950:A2 *950:C2 0
23 *950:B1 *950:C2 0
24 *1027:C *626:32 0
25 *1037:C *626:32 0
26 *1046:A *950:C2 0
27 *1046:B *950:C2 0
28 *1046:C *950:C2 0
29 *1046:D *950:C2 0
30 *1089:A1 *626:12 0
31 *1090:B *1091:A 0
32 *1091:B *626:32 0
33 *1092:A2 *626:32 0
34 *1112:B *626:32 0
35 *1155:A1 *1087:A 0
36 *1406:D *626:12 0
37 *1406:RESET_B *626:5 0
38 *230:26 *950:C2 0
39 *315:607 *626:32 0
40 *316:437 *1087:A 0
41 *316:437 *626:5 0
42 *360:79 *626:32 0
43 *360:190 *626:12 0
44 *360:203 *1087:A 0
45 *603:290 *626:12 0
*RES
1 *1406:Q *626:5 14.3536 
2 *626:5 *626:12 16.8571 
3 *626:12 *1091:A 14.3357 
4 *626:12 *626:32 33.7679 
5 *626:32 *1035:C 9.3 
6 *626:32 *950:C2 33.8982 
7 *626:5 *1087:A 22.3 
*END

*D_NET *627 0.00479735
*CONN
*I *1094:A I *D sky130_fd_sc_hd__nand2_1
*I *903:A1 I *D sky130_fd_sc_hd__a221oi_1
*I *1035:D I *D sky130_fd_sc_hd__nand4_1
*I *1090:A I *D sky130_fd_sc_hd__nand2_1
*I *1407:Q O *D sky130_fd_sc_hd__dfrtp_1
*CAP
1 *1094:A 0
2 *903:A1 0.000777404
3 *1035:D 0.000439792
4 *1090:A 1.60323e-05
5 *1407:Q 0.000461677
6 *627:27 0.00176109
7 *627:20 0.000703769
8 *627:8 0.00063759
9 *903:A1 *900:B2 0
10 *903:A1 *910:A1 0
11 *1035:D *1028:A 0
12 *1035:D *772:11 0
13 *627:8 *1407:CLK 0
14 *627:8 *692:23 0
15 *627:27 *905:B2 0
16 *627:27 *1025:C 0
17 *627:27 *1833:A 0
18 *627:27 *772:11 0
19 *900:C2 *903:A1 0
20 *900:C2 *627:27 0
21 *902:B *903:A1 0
22 *902:C *903:A1 0
23 *903:C1 *903:A1 0
24 *910:A2 *903:A1 0
25 *915:C2 *627:8 0
26 *915:C2 *627:20 0
27 *915:C2 *627:27 0
28 *936:A2 *903:A1 0
29 *1037:B *1035:D 0
30 *1037:D *1035:D 0
31 *1091:B *627:27 0
32 *1092:B1 *627:20 0
33 *1095:B1 *627:27 0
34 *1407:D *627:8 0
35 *222:19 *903:A1 0
36 *252:14 *903:A1 0
37 *252:14 *627:27 0
38 *315:607 *627:20 0
39 *315:607 *627:27 0
40 *360:62 *627:8 0
41 *360:62 *627:20 0
42 *626:32 *1035:D 0
43 *626:32 *627:27 0
*RES
1 *1407:Q *627:8 23.5857 
2 *627:8 *1090:A 14.3357 
3 *627:8 *627:20 8.10714 
4 *627:20 *627:27 16.7321 
5 *627:27 *1035:D 22.9786 
6 *627:27 *903:A1 31.5857 
7 *627:20 *1094:A 9.3 
*END

*D_NET *628 0.00410093
*CONN
*I *1093:A I *D sky130_fd_sc_hd__nand2_1
*I *908:A1 I *D sky130_fd_sc_hd__a222oi_1
*I *1033:B I *D sky130_fd_sc_hd__nand2_1
*I *1097:A I *D sky130_fd_sc_hd__nand2_1
*I *1408:Q O *D sky130_fd_sc_hd__dfrtp_1
*CAP
1 *1093:A 0
2 *908:A1 0.000481859
3 *1033:B 0
4 *1097:A 0.000676549
5 *1408:Q 0.00019489
6 *628:36 0.00100384
7 *628:17 0.00137372
8 *628:9 0.000370079
9 *908:A1 *905:B2 0
10 *908:A1 *908:C2 0
11 *1097:A *630:26 0
12 *628:36 *943:C2 0
13 *628:36 *1032:B 0
14 *628:36 *648:18 0
15 *628:36 *695:23 0
16 *940:B2 *908:A1 0
17 *1037:B *908:A1 0
18 *1090:B *628:9 0
19 *1090:B *628:17 0
20 *1091:B *628:9 0
21 *1095:B1 *628:17 0
22 *1402:RESET_B *628:36 0
23 *252:14 *908:A1 0
24 *273:19 *908:A1 0
25 *359:31 *908:A1 0
26 *603:273 *1097:A 0
27 *622:7 *1097:A 0
28 *622:7 *628:17 0
29 *625:21 *628:36 0
*RES
1 *1408:Q *628:9 22.5321 
2 *628:9 *628:17 3.875 
3 *628:17 *1097:A 32.675 
4 *628:17 *628:36 16.4464 
5 *628:36 *1033:B 13.8 
6 *628:36 *908:A1 33.8714 
7 *628:9 *1093:A 9.3 
*END

*D_NET *629 0.00295246
*CONN
*I *914:A1 I *D sky130_fd_sc_hd__a222oi_1
*I *1021:A I *D sky130_fd_sc_hd__nand4_1
*I *1100:A I *D sky130_fd_sc_hd__nand2_1
*I *1096:A I *D sky130_fd_sc_hd__nand2_1
*I *1409:Q O *D sky130_fd_sc_hd__dfrtp_1
*CAP
1 *914:A1 0.00054305
2 *1021:A 0
3 *1100:A 0.00031594
4 *1096:A 2.0535e-05
5 *1409:Q 8.57119e-05
6 *629:30 0.00101019
7 *629:9 0.000380326
8 *629:8 0.000596703
9 *914:A1 *923:A1 0
10 *914:A1 *926:A 0
11 *914:A1 *929:A1 0
12 *914:A1 *937:A1 0
13 *914:A1 *630:26 0
14 *629:30 *1413:CLK 0
15 *629:30 *630:26 0
16 *914:C2 *914:A1 0
17 *921:B1 *914:A1 0
18 *929:C1 *914:A1 0
19 *929:C2 *914:A1 0
20 *933:A *914:A1 0
21 *933:A *629:30 0
22 *937:A2 *914:A1 0
23 *937:B1 *914:A1 0
24 *938:A *914:A1 0
25 *938:B *914:A1 0
26 *938:C *914:A1 0
27 *939:A3 *914:A1 0
28 *1096:B *1100:A 0
29 *1096:B *629:8 0
30 *1098:A2 *1096:A 0
31 *1098:A2 *1100:A 0
32 *1098:A2 *629:9 0
33 *1098:A2 *629:30 0
34 *1098:B1 *1100:A 0
35 *1105:B *1100:A 0
36 *1110:B1 *629:30 0
37 *1409:D *629:8 0
38 *315:434 *629:8 0
39 *315:438 *629:8 0
40 *316:508 *1100:A 0
41 *360:102 *1096:A 0
42 *360:102 *1100:A 0
43 *360:106 *1100:A 0
*RES
1 *1409:Q *629:8 20.2464 
2 *629:8 *629:9 0.946429 
3 *629:9 *1096:A 9.72857 
4 *629:9 *1100:A 15.925 
5 *629:8 *629:30 14.9107 
6 *629:30 *1021:A 13.8 
7 *629:30 *914:A1 26.0545 
*END

*D_NET *630 0.00424868
*CONN
*I *923:A1 I *D sky130_fd_sc_hd__a222oi_1
*I *1021:B I *D sky130_fd_sc_hd__nand4_1
*I *1103:A I *D sky130_fd_sc_hd__nand2_1
*I *1099:A I *D sky130_fd_sc_hd__nand2_1
*I *1410:Q O *D sky130_fd_sc_hd__dfrtp_1
*CAP
1 *923:A1 0.000875909
2 *1021:B 0
3 *1103:A 0.000128597
4 *1099:A 0
5 *1410:Q 8.55626e-05
6 *630:26 0.00186783
7 *630:13 0.00116287
8 *630:7 0.000127916
9 *923:A1 *929:A1 0
10 *923:A1 *937:A1 0
11 *1103:A *632:17 0
12 *630:26 *937:A1 0
13 *630:26 *632:17 0
14 *630:26 *632:29 0
15 *914:A1 *923:A1 0
16 *914:A1 *630:26 0
17 *917:C1 *923:A1 0
18 *923:B1 *923:A1 0
19 *924:A *923:A1 0
20 *929:A2 *923:A1 0
21 *931:A *923:A1 0
22 *933:A *923:A1 0
23 *938:A *923:A1 0
24 *1077:A1 *630:26 0
25 *1097:A *630:26 0
26 *1101:B1 *630:7 0
27 *222:65 *923:A1 0
28 *231:50 *923:A1 0
29 *236:57 *923:A1 0
30 *277:16 *923:A1 0
31 *315:449 *1103:A 0
32 *316:476 *630:7 0
33 *316:476 *630:13 0
34 *316:476 *630:26 0
35 *360:130 *1103:A 0
36 *360:132 *1103:A 0
37 *360:167 *630:7 0
38 *360:167 *630:13 0
39 *360:167 *630:26 0
40 *603:196 *630:7 0
41 *629:30 *630:26 0
*RES
1 *1410:Q *630:7 11.0857 
2 *630:7 *1099:A 9.3 
3 *630:7 *630:13 0.946429 
4 *630:13 *1103:A 21.1571 
5 *630:13 *630:26 26.5 
6 *630:26 *1021:B 13.8 
7 *630:26 *923:A1 42.3402 
*END

*D_NET *631 0.00372383
*CONN
*I *784:A I *D sky130_fd_sc_hd__clkinv_1
*I *908:C2 I *D sky130_fd_sc_hd__a222oi_1
*I *1392:Q O *D sky130_fd_sc_hd__dfrtp_1
*CAP
1 *784:A 9.13439e-05
2 *908:C2 0.00153166
3 *1392:Q 0.000238908
4 *631:11 0.00186192
5 *908:C2 *900:B2 0
6 *908:C2 *920:A1 0
7 *908:C2 *943:C2 0
8 *908:C2 *951:B2 0
9 *908:C2 *1833:A 0
10 *908:C2 *634:20 0
11 *908:C2 *643:17 0
12 *908:C2 *645:18 0
13 *908:C2 *647:35 0
14 *631:11 *1393:CLK 0
15 *631:11 *645:18 0
16 *631:11 *647:35 0
17 *900:C2 *908:C2 0
18 *908:A1 *908:C2 0
19 *940:B2 *908:C2 0
20 *1036:B *784:A 0
21 *1050:A1 *784:A 0
22 *1392:D *784:A 0
23 *142:7 *784:A 0
24 *273:19 *908:C2 0
*RES
1 *1392:Q *631:11 20.3763 
2 *631:11 *908:C2 28.7953 
3 *631:11 *784:A 19.2368 
*END

*D_NET *632 0.00368006
*CONN
*I *929:A1 I *D sky130_fd_sc_hd__a222oi_1
*I *1021:C I *D sky130_fd_sc_hd__nand4_1
*I *1106:A I *D sky130_fd_sc_hd__nand2_1
*I *1102:A I *D sky130_fd_sc_hd__nand2_1
*I *1411:Q O *D sky130_fd_sc_hd__dfrtp_1
*CAP
1 *929:A1 0.000563256
2 *1021:C 0
3 *1106:A 4.53482e-05
4 *1102:A 0.000197935
5 *1411:Q 0
6 *632:29 0.00131458
7 *632:17 0.00107884
8 *632:5 0.000480102
9 *929:A1 *929:B2 0
10 *1102:A *1404:CLK 0
11 *1102:A *697:17 0
12 *632:29 *937:A1 0
13 *632:29 *633:25 0
14 *914:A1 *929:A1 0
15 *923:A1 *929:A1 0
16 *929:A2 *929:A1 0
17 *929:B1 *929:A1 0
18 *929:C1 *929:A1 0
19 *929:C2 *929:A1 0
20 *938:A *929:A1 0
21 *1034:B *929:A1 0
22 *1103:A *632:17 0
23 *1104:A2 *632:17 0
24 *233:75 *929:A1 0
25 *315:434 *632:29 0
26 *315:438 *632:29 0
27 *315:441 *1106:A 0
28 *315:441 *632:29 0
29 *315:449 *632:17 0
30 *315:469 *632:29 0
31 *316:397 *1102:A 0
32 *360:132 *632:17 0
33 *630:26 *632:17 0
34 *630:26 *632:29 0
*RES
1 *1411:Q *632:5 13.8 
2 *632:5 *1102:A 18.2107 
3 *632:5 *632:17 11 
4 *632:17 *1106:A 10.2464 
5 *632:17 *632:29 25.6964 
6 *632:29 *1021:C 9.3 
7 *632:29 *929:A1 39.6304 
*END

*D_NET *633 0.00293082
*CONN
*I *1109:A I *D sky130_fd_sc_hd__nand2_1
*I *937:A1 I *D sky130_fd_sc_hd__a222oi_1
*I *1021:D I *D sky130_fd_sc_hd__nand4_1
*I *1105:A I *D sky130_fd_sc_hd__nand2_1
*I *1412:Q O *D sky130_fd_sc_hd__dfrtp_1
*CAP
1 *1109:A 0
2 *937:A1 0.000535768
3 *1021:D 6.50276e-05
4 *1105:A 2.56688e-05
5 *1412:Q 0.000244356
6 *633:25 0.00072664
7 *633:22 0.000594592
8 *633:8 0.000738772
9 *914:A1 *937:A1 0
10 *923:A1 *937:A1 0
11 *929:B1 *937:A1 0
12 *937:B1 *937:A1 0
13 *937:C1 *937:A1 0
14 *937:C2 *937:A1 0
15 *1096:B *1105:A 0
16 *1107:B1 *633:8 0
17 *1110:A1 *633:22 0
18 *1110:A2 *633:22 0
19 *1412:D *633:8 0
20 *235:49 *937:A1 0
21 *315:423 *633:22 0
22 *315:434 *633:25 0
23 *316:368 *633:22 0
24 *316:372 *633:8 0
25 *316:372 *633:22 0
26 *359:31 *937:A1 0
27 *360:102 *633:22 0
28 *360:106 *1105:A 0
29 *360:128 *633:8 0
30 *613:24 *633:22 0
31 *616:25 *937:A1 0
32 *630:26 *937:A1 0
33 *632:29 *937:A1 0
34 *632:29 *633:25 0
*RES
1 *1412:Q *633:8 19.2286 
2 *633:8 *1105:A 14.3357 
3 *633:8 *633:22 14.6607 
4 *633:22 *633:25 7.35714 
5 *633:25 *1021:D 15.1571 
6 *633:25 *937:A1 25.8134 
7 *633:22 *1109:A 9.3 
*END

*D_NET *634 0.00501919
*CONN
*I *1042:A I *D sky130_fd_sc_hd__nand4_1
*I *943:A1 I *D sky130_fd_sc_hd__a222oi_1
*I *1112:A I *D sky130_fd_sc_hd__nand2_1
*I *1108:A I *D sky130_fd_sc_hd__nand2_1
*I *1413:Q O *D sky130_fd_sc_hd__dfrtp_1
*CAP
1 *1042:A 0.000137913
2 *943:A1 0.000709707
3 *1112:A 5.11916e-05
4 *1108:A 0.000302263
5 *1413:Q 9.43834e-06
6 *634:36 0.00135772
7 *634:20 0.00135027
8 *634:6 0.00110068
9 *943:A1 *936:A1 0
10 *943:A1 *942:A1 0
11 *1042:A *950:A1 0
12 *1042:A *635:20 0
13 *1042:A *636:23 0
14 *634:20 *920:A1 0
15 *634:36 *898:A1 0
16 *634:36 *950:A1 0
17 *634:36 *635:20 0
18 *634:36 *651:29 0
19 *634:36 *684:25 0
20 *634:36 *692:23 0
21 *900:C2 *943:A1 0
22 *900:C2 *634:20 0
23 *908:B1 *943:A1 0
24 *908:C2 *634:20 0
25 *915:A2 *634:36 0
26 *943:A2 *943:A1 0
27 *951:C2 *943:A1 0
28 *951:C2 *1042:A 0
29 *951:C2 *634:36 0
30 *1020:A *1108:A 0
31 *1027:C *634:36 0
32 *1028:B *634:36 0
33 *1037:A *634:36 0
34 *1037:C *634:36 0
35 *1045:C *943:A1 0
36 *1045:C *1042:A 0
37 *1413:RESET_B *1108:A 0
38 *222:21 *943:A1 0
39 *224:63 *943:A1 0
40 *224:63 *634:36 0
41 *227:49 *634:36 0
42 *235:83 *943:A1 0
43 *316:144 *1108:A 0
44 *316:148 *1108:A 0
45 *360:96 *1108:A 0
46 *622:25 *1108:A 0
47 *622:25 *634:6 0
*RES
1 *1413:Q *634:6 14.0768 
2 *634:6 *1108:A 20.3268 
3 *634:6 *634:20 9.6776 
4 *634:20 *1112:A 14.9161 
5 *634:20 *634:36 15.1243 
6 *634:36 *943:A1 27.9604 
7 *634:36 *1042:A 19.0178 
*END

*D_NET *635 0.00310478
*CONN
*I *1115:A I *D sky130_fd_sc_hd__nand2_1
*I *1042:B I *D sky130_fd_sc_hd__nand4_1
*I *947:A I *D sky130_fd_sc_hd__nand2_1
*I *1111:A I *D sky130_fd_sc_hd__nand2_1
*I *1414:Q O *D sky130_fd_sc_hd__dfrtp_1
*CAP
1 *1115:A 0.000194869
2 *1042:B 0
3 *947:A 0.000242356
4 *1111:A 0
5 *1414:Q 0
6 *635:20 0.00096795
7 *635:10 0.00111517
8 *635:4 0.000584442
9 *635:10 *649:23 0
10 *635:20 *898:A1 0
11 *635:20 *950:A1 0
12 *635:20 *1028:A 0
13 *635:20 *1834:A 0
14 *635:20 *649:23 0
15 *635:20 *651:29 0
16 *635:20 *773:12 0
17 *950:C2 *635:20 0
18 *952:C *947:A 0
19 *1042:A *635:20 0
20 *1111:B *635:10 0
21 *1111:B *635:20 0
22 *1113:A2 *635:20 0
23 *315:591 *635:10 0
24 *315:633 *1115:A 0
25 *315:633 *635:10 0
26 *315:637 *1115:A 0
27 *603:446 *1115:A 0
28 *634:36 *635:20 0
*RES
1 *1414:Q *635:4 9.3 
2 *635:4 *635:10 12.8571 
3 *635:10 *1111:A 13.8 
4 *635:10 *635:20 20.75 
5 *635:20 *947:A 14.5143 
6 *635:20 *1042:B 9.3 
7 *635:4 *1115:A 13.4607 
*END

*D_NET *636 0.00518435
*CONN
*I *1118:A I *D sky130_fd_sc_hd__nand2_1
*I *900:A1 I *D sky130_fd_sc_hd__a222oi_1
*I *1042:C I *D sky130_fd_sc_hd__nand4_1
*I *1114:A I *D sky130_fd_sc_hd__nand2_1
*I *1415:Q O *D sky130_fd_sc_hd__dfrtp_1
*CAP
1 *1118:A 0.000314178
2 *900:A1 0.000352731
3 *1042:C 0
4 *1114:A 0
5 *1415:Q 0.0004129
6 *636:23 0.00106705
7 *636:17 0.00182654
8 *636:8 0.00121095
9 *900:A1 *950:A1 0
10 *1118:A *1416:CLK 0
11 *1118:A *644:22 0
12 *636:8 *1415:CLK 0
13 *636:8 *694:25 0
14 *636:8 *774:10 0
15 *636:17 *694:25 0
16 *636:17 *765:135 0
17 *636:17 *774:6 0
18 *636:17 *774:10 0
19 *636:23 *644:22 0
20 *900:A2 *900:A1 0
21 *900:B1 *900:A1 0
22 *906:A1 *900:A1 0
23 *906:A1 *636:23 0
24 *950:C2 *900:A1 0
25 *951:C2 *636:23 0
26 *1036:B *636:17 0
27 *1042:A *636:23 0
28 *1042:D *900:A1 0
29 *1042:D *636:23 0
30 *1050:A1 *636:17 0
31 *1065:A2 *636:8 0
32 *233:22 *900:A1 0
33 *236:30 *900:A1 0
34 *315:643 *636:8 0
35 *316:999 *1118:A 0
36 *360:22 *636:17 0
37 *360:325 *636:17 0
38 *616:39 *900:A1 0
39 *616:39 *636:23 0
40 *618:37 *1118:A 0
41 *618:37 *636:23 0
*RES
1 *1415:Q *636:8 22.55 
2 *636:8 *1114:A 13.8 
3 *636:8 *636:17 21.5975 
4 *636:17 *636:23 6.49702 
5 *636:23 *1042:C 13.8 
6 *636:23 *900:A1 24.896 
7 *636:17 *1118:A 19.6129 
*END

*D_NET *637 0.00444153
*CONN
*I *1120:A I *D sky130_fd_sc_hd__nand2_1
*I *1041:A I *D sky130_fd_sc_hd__nor4_1
*I *910:B2 I *D sky130_fd_sc_hd__a221oi_1
*I *1117:A I *D sky130_fd_sc_hd__nand2_1
*I *1416:Q O *D sky130_fd_sc_hd__dfrtp_1
*CAP
1 *1120:A 0.000123092
2 *1041:A 0
3 *910:B2 0.0008729
4 *1117:A 8.84844e-05
5 *1416:Q 0.000265738
6 *637:20 0.00160703
7 *637:17 0.000993642
8 *637:8 0.000490646
9 *910:B2 *899:B2 0
10 *910:B2 *903:B2 0
11 *910:B2 *912:A 0
12 *910:B2 *922:A1 0
13 *910:B2 *922:C2 0
14 *910:B2 *765:97 0
15 *637:20 *641:17 0
16 *906:A1 *910:B2 0
17 *910:C1 *910:B2 0
18 *912:B *910:B2 0
19 *935:B2 *910:B2 0
20 *1214:B *1117:A 0
21 *230:43 *910:B2 0
22 *230:45 *910:B2 0
23 *230:52 *910:B2 0
24 *231:26 *910:B2 0
25 *233:11 *910:B2 0
26 *315:715 *1120:A 0
27 *315:715 *637:17 0
28 *316:995 *1117:A 0
29 *360:337 *637:8 0
30 *603:504 *1117:A 0
31 *603:504 *637:17 0
32 *603:510 *1120:A 0
33 *603:510 *637:17 0
34 *605:23 *637:20 0
35 *620:41 *910:B2 0
*RES
1 *1416:Q *637:8 19.3893 
2 *637:8 *1117:A 15.7464 
3 *637:8 *637:17 3.16071 
4 *637:17 *637:20 19.8214 
5 *637:20 *910:B2 29.2104 
6 *637:20 *1041:A 9.3 
7 *637:17 *1120:A 16.6571 
*END

*D_NET *638 0.0047697
*CONN
*I *1124:A I *D sky130_fd_sc_hd__nand2_1
*I *1121:A I *D sky130_fd_sc_hd__nand2_1
*I *912:A I *D sky130_fd_sc_hd__nand2_1
*I *1029:A I *D sky130_fd_sc_hd__nand2_1
*I *1417:Q O *D sky130_fd_sc_hd__dfrtp_1
*CAP
1 *1124:A 0.000399335
2 *1121:A 0
3 *912:A 0.000890976
4 *1029:A 3.89331e-05
5 *1417:Q 0.000258827
6 *638:18 0.00152818
7 *638:9 0.000796777
8 *638:5 0.000856667
9 *912:A *922:C2 0
10 *638:5 *778:31 0
11 *638:9 *778:31 0
12 *638:18 *640:20 0
13 *638:18 *641:17 0
14 *910:B2 *912:A 0
15 *912:B *912:A 0
16 *935:B2 *912:A 0
17 *935:B2 *638:18 0
18 *1039:D *1029:A 0
19 *1039:D *638:18 0
20 *1223:A *1124:A 0
21 *1450:RESET_B *638:5 0
22 *222:14 *912:A 0
23 *234:27 *912:A 0
24 *235:37 *912:A 0
25 *315:735 *1124:A 0
26 *603:510 *1124:A 0
27 *603:540 *1124:A 0
28 *603:544 *1124:A 0
29 *620:41 *912:A 0
30 *620:41 *1029:A 0
31 *620:41 *638:18 0
*RES
1 *1417:Q *638:5 14.7643 
2 *638:5 *638:9 4.14286 
3 *638:9 *638:18 14.8568 
4 *638:18 *1029:A 14.6839 
5 *638:18 *912:A 25.1128 
6 *638:9 *1121:A 9.3 
7 *638:5 *1124:A 27.2821 
*END

*D_NET *639 0.00479943
*CONN
*I *1127:A I *D sky130_fd_sc_hd__nand2_1
*I *1123:A I *D sky130_fd_sc_hd__nand2_1
*I *1029:B I *D sky130_fd_sc_hd__nand2_1
*I *922:C2 I *D sky130_fd_sc_hd__a222oi_1
*I *1418:Q O *D sky130_fd_sc_hd__dfrtp_1
*CAP
1 *1127:A 0.000204495
2 *1123:A 4.84781e-05
3 *1029:B 0
4 *922:C2 0.000571943
5 *1418:Q 0
6 *639:18 0.00164341
7 *639:11 0.00162328
8 *639:4 0.000707829
9 *1127:A *1419:CLK 0
10 *639:11 *1419:CLK 0
11 *639:18 *1041:C 0
12 *639:18 *726:18 0
13 *639:18 *778:26 0
14 *883:A *639:18 0
15 *910:B2 *922:C2 0
16 *912:A *922:C2 0
17 *935:B2 *922:C2 0
18 *1122:A *639:18 0
19 *1122:B *639:18 0
20 *1223:B *639:18 0
21 *1224:A *639:18 0
22 *1451:D *639:18 0
23 *222:19 *922:C2 0
24 *225:15 *639:18 0
25 *233:11 *922:C2 0
26 *233:11 *639:18 0
27 *236:18 *922:C2 0
28 *315:735 *1123:A 0
29 *315:735 *639:18 0
30 *315:861 *1127:A 0
31 *316:956 *1123:A 0
32 *316:956 *639:18 0
33 *360:391 *639:11 0
34 *603:638 *639:11 0
35 *608:12 *639:11 0
36 *620:41 *922:C2 0
37 *620:41 *639:18 0
*RES
1 *1418:Q *639:4 9.3 
2 *639:4 *639:11 14.9065 
3 *639:11 *639:18 32.1875 
4 *639:18 *922:C2 25.3858 
5 *639:18 *1029:B 13.8 
6 *639:11 *1123:A 14.9161 
7 *639:4 *1127:A 13.5679 
*END

*D_NET *640 0.00619746
*CONN
*I *1126:A I *D sky130_fd_sc_hd__nand2_1
*I *1041:C I *D sky130_fd_sc_hd__nor4_1
*I *927:C1 I *D sky130_fd_sc_hd__a222oi_1
*I *1129:A I *D sky130_fd_sc_hd__nand2_1
*I *1419:Q O *D sky130_fd_sc_hd__dfrtp_1
*CAP
1 *1126:A 0.000246716
2 *1041:C 0.000454202
3 *927:C1 0.000199765
4 *1129:A 0.000214132
5 *1419:Q 0.000104386
6 *640:20 0.00231193
7 *640:10 0.00209366
8 *640:7 0.000572667
9 *927:C1 *765:125 0
10 *1041:C *897:A 0
11 *1041:C *935:A1 0
12 *1041:C *641:40 0
13 *1041:C *725:36 0
14 *640:20 *725:10 0
15 *640:20 *765:125 0
16 *883:A *1041:C 0
17 *883:B *1041:C 0
18 *927:B1 *927:C1 0
19 *935:B2 *1041:C 0
20 *1041:D *1041:C 0
21 *1126:B *1126:A 0
22 *1228:B *1126:A 0
23 *1228:B *1129:A 0
24 *1228:B *640:10 0
25 *1230:A *1126:A 0
26 *225:15 *1041:C 0
27 *226:22 *927:C1 0
28 *227:13 *1041:C 0
29 *228:19 *927:C1 0
30 *228:19 *640:20 0
31 *230:12 *1041:C 0
32 *233:11 *1041:C 0
33 *315:876 *1129:A 0
34 *315:878 *1129:A 0
35 *316:1038 *640:20 0
36 *316:1052 *1129:A 0
37 *316:1062 *1129:A 0
38 *316:1064 *1126:A 0
39 *603:644 *1126:A 0
40 *603:644 *640:10 0
41 *603:655 *1129:A 0
42 *603:655 *640:10 0
43 *603:745 *1126:A 0
44 *608:12 *640:20 0
45 *610:14 *640:20 0
46 *620:41 *640:20 0
47 *638:18 *640:20 0
48 *639:18 *1041:C 0
*RES
1 *1419:Q *640:7 15.9786 
2 *640:7 *640:10 5.0625 
3 *640:10 *1129:A 18.6304 
4 *640:10 *640:20 9.43853 
5 *640:20 *927:C1 18.9869 
6 *640:20 *1041:C 27.3439 
7 *640:7 *1126:A 19.2821 
*END

*D_NET *641 0.00732306
*CONN
*I *1130:A I *D sky130_fd_sc_hd__nand2_1
*I *1132:A I *D sky130_fd_sc_hd__nand2_1
*I *1041:B I *D sky130_fd_sc_hd__nor4_1
*I *936:C2 I *D sky130_fd_sc_hd__a222oi_1
*I *1420:Q O *D sky130_fd_sc_hd__dfrtp_1
*CAP
1 *1130:A 0.00020657
2 *1132:A 0.00037891
3 *1041:B 0
4 *936:C2 7.87176e-05
5 *1420:Q 2.56688e-05
6 *641:40 0.00126209
7 *641:17 0.00290736
8 *641:8 0.0021672
9 *641:7 0.000296538
10 *936:C2 *936:B2 0
11 *936:C2 *942:A1 0
12 *641:40 *910:A1 0
13 *641:40 *936:B2 0
14 *900:B1 *641:40 0
15 *902:B *641:40 0
16 *903:C1 *641:40 0
17 *906:A1 *641:17 0
18 *906:A1 *641:40 0
19 *909:B *936:C2 0
20 *910:C1 *641:40 0
21 *935:B2 *641:17 0
22 *936:A2 *641:40 0
23 *936:B1 *936:C2 0
24 *1041:C *641:40 0
25 *1041:D *641:40 0
26 *1042:D *641:40 0
27 *1131:A *1130:A 0
28 *1131:B *1130:A 0
29 *1132:B *1132:A 0
30 *1134:B *1132:A 0
31 *1216:A *1130:A 0
32 *1217:A *1132:A 0
33 *1217:B *1130:A 0
34 *1217:B *1132:A 0
35 *1217:B *641:8 0
36 *1218:B1 *1132:A 0
37 *1218:B1 *641:8 0
38 *227:13 *641:40 0
39 *230:12 *641:40 0
40 *231:26 *641:40 0
41 *233:22 *641:40 0
42 *316:1038 *641:17 0
43 *316:1052 *1130:A 0
44 *316:1062 *1130:A 0
45 *605:10 *1130:A 0
46 *605:10 *641:8 0
47 *605:13 *641:17 0
48 *619:18 *641:17 0
49 *620:41 *641:17 0
50 *637:20 *641:17 0
51 *638:18 *641:17 0
*RES
1 *1420:Q *641:7 14.3357 
2 *641:7 *641:8 1.49107 
3 *641:8 *641:17 20.9423 
4 *641:17 *641:40 47.8839 
5 *641:40 *936:C2 15.4429 
6 *641:17 *1041:B 9.3 
7 *641:8 *1132:A 22.4339 
8 *641:7 *1130:A 18.5679 
*END

*D_NET *642 0.00363056
*CONN
*I *1049:A I *D sky130_fd_sc_hd__nand2_1
*I *1019:A I *D sky130_fd_sc_hd__nand4_1
*I *915:A1 I *D sky130_fd_sc_hd__a222oi_1
*I *1052:A I *D sky130_fd_sc_hd__nand2_1
*I *1393:Q O *D sky130_fd_sc_hd__dfrtp_1
*CAP
1 *1049:A 0.000235526
2 *1019:A 0
3 *915:A1 0.000704504
4 *1052:A 0
5 *1393:Q 0.000215988
6 *642:19 0.00120547
7 *642:17 0.000894786
8 *642:9 0.000374279
9 *915:A1 *930:A1 0
10 *1049:A *774:85 0
11 *915:A2 *915:A1 0
12 *915:B1 *915:A1 0
13 *1036:B *915:A1 0
14 *1037:B *915:A1 0
15 *1046:A *915:A1 0
16 *1047:A *642:19 0
17 *1047:B *642:19 0
18 *1047:C *915:A1 0
19 *1053:A2 *1049:A 0
20 *1392:D *642:19 0
21 *1393:D *1049:A 0
22 *315:672 *642:9 0
23 *315:672 *642:17 0
24 *315:680 *1049:A 0
25 *315:680 *642:17 0
26 *315:680 *642:19 0
27 *316:203 *1049:A 0
28 *316:970 *642:19 0
29 *360:24 *1049:A 0
*RES
1 *1393:Q *642:9 22.9429 
2 *642:9 *1052:A 9.3 
3 *642:9 *642:17 3.42857 
4 *642:17 *642:19 10.3929 
5 *642:19 *915:A1 33.2241 
6 *642:19 *1019:A 9.3 
7 *642:17 *1049:A 23.5857 
*END

*D_NET *643 0.00720474
*CONN
*I *1133:A I *D sky130_fd_sc_hd__nand2_1
*I *1135:A I *D sky130_fd_sc_hd__nand2_1
*I *942:A1 I *D sky130_fd_sc_hd__a222oi_1
*I *1026:A I *D sky130_fd_sc_hd__nor2_1
*I *1421:Q O *D sky130_fd_sc_hd__dfrtp_1
*CAP
1 *1133:A 0
2 *1135:A 9.58301e-05
3 *942:A1 0.00104925
4 *1026:A 2.55425e-05
5 *1421:Q 0.000127418
6 *643:44 9.58301e-05
7 *643:17 0.00337912
8 *643:10 0.00243175
9 *942:A1 *936:A1 0
10 *942:A1 *943:C2 0
11 *942:A1 *1026:B 0
12 *1026:A *1026:B 0
13 *643:17 *898:A1 0
14 *643:17 *1833:A 0
15 *643:17 *644:22 0
16 *643:17 *645:18 0
17 *643:17 *647:35 0
18 *643:17 *684:25 0
19 *908:C2 *643:17 0
20 *915:A2 *942:A1 0
21 *936:C2 *942:A1 0
22 *943:A1 *942:A1 0
23 *943:C1 *942:A1 0
24 *1037:B *942:A1 0
25 *1045:C *942:A1 0
26 *1132:B *643:10 0
27 *1133:B *643:17 0
28 *1134:B *1135:A 0
29 *224:65 *942:A1 0
30 *224:70 *942:A1 0
31 *231:37 *942:A1 0
32 *233:67 *942:A1 0
33 *236:49 *942:A1 0
34 *273:19 *942:A1 0
35 *315:981 *643:10 0
36 *315:981 *643:17 0
37 *316:328 *643:17 0
38 *603:663 *643:10 0
*RES
1 *1421:Q *643:10 16.8179 
2 *643:10 *643:17 18.9608 
3 *643:17 *1026:A 14.3804 
4 *643:17 *942:A1 33.0069 
5 *643:10 *643:44 4.5 
6 *643:44 *1135:A 11.5143 
7 *643:44 *1133:A 9.3 
*END

*D_NET *644 0.0051915
*CONN
*I *1136:A I *D sky130_fd_sc_hd__nand2_1
*I *950:A1 I *D sky130_fd_sc_hd__a222oi_1
*I *1028:A I *D sky130_fd_sc_hd__nor2_1
*I *1138:A I *D sky130_fd_sc_hd__nand2_1
*I *1422:Q O *D sky130_fd_sc_hd__dfrtp_1
*CAP
1 *1136:A 0
2 *950:A1 0.000414443
3 *1028:A 0.000131358
4 *1138:A 0.000108521
5 *1422:Q 0.000114956
6 *644:22 0.00234949
7 *644:10 0.00193499
8 *644:8 0.000137746
9 *900:A1 *950:A1 0
10 *950:C2 *950:A1 0
11 *951:C2 *644:22 0
12 *1035:D *1028:A 0
13 *1037:A *1028:A 0
14 *1042:A *950:A1 0
15 *1042:D *950:A1 0
16 *1118:A *644:22 0
17 *224:63 *950:A1 0
18 *227:49 *950:A1 0
19 *315:968 *1138:A 0
20 *315:981 *1138:A 0
21 *316:312 *1138:A 0
22 *316:328 *1138:A 0
23 *316:328 *644:8 0
24 *316:328 *644:10 0
25 *316:1016 *644:22 0
26 *603:665 *1138:A 0
27 *603:665 *644:8 0
28 *603:665 *644:10 0
29 *626:32 *1028:A 0
30 *634:36 *950:A1 0
31 *635:20 *950:A1 0
32 *635:20 *1028:A 0
33 *636:23 *644:22 0
34 *643:17 *644:22 0
*RES
1 *1422:Q *644:8 16.3893 
2 *644:8 *644:10 0.580357 
3 *644:10 *1138:A 16.2018 
4 *644:10 *644:22 13.353 
5 *644:22 *1028:A 16.7375 
6 *644:22 *950:A1 23.1036 
7 *644:8 *1136:A 13.8 
*END

*D_NET *645 0.00764477
*CONN
*I *1055:A I *D sky130_fd_sc_hd__nand2_1
*I *1019:B I *D sky130_fd_sc_hd__nand4_1
*I *920:A1 I *D sky130_fd_sc_hd__a222oi_1
*I *1051:A I *D sky130_fd_sc_hd__nand2_1
*I *1394:Q O *D sky130_fd_sc_hd__dfrtp_1
*CAP
1 *1055:A 0.000138398
2 *1019:B 0.000137667
3 *920:A1 0.00234226
4 *1051:A 0.000139215
5 *1394:Q 0
6 *645:18 0.00332531
7 *645:7 0.00120406
8 *645:4 0.000357866
9 *920:A1 *936:B2 0
10 *920:A1 *684:25 0
11 *1019:B *646:23 0
12 *645:18 *647:35 0
13 *645:18 *684:25 0
14 *908:C2 *920:A1 0
15 *908:C2 *645:18 0
16 *920:A2 *920:A1 0
17 *920:B1 *920:A1 0
18 *920:C1 *920:A1 0
19 *1047:A *1019:B 0
20 *1053:A2 *1051:A 0
21 *1053:A2 *645:18 0
22 *1392:D *1019:B 0
23 *1394:D *1051:A 0
24 *228:27 *920:A1 0
25 *231:20 *920:A1 0
26 *234:27 *920:A1 0
27 *248:13 *920:A1 0
28 *603:413 *1051:A 0
29 *603:419 *1051:A 0
30 *603:419 *645:18 0
31 *631:11 *645:18 0
32 *634:20 *920:A1 0
33 *643:17 *645:18 0
*RES
1 *1394:Q *645:4 9.3 
2 *645:4 *645:7 9.14286 
3 *645:7 *1051:A 16.9607 
4 *645:7 *645:18 7.75867 
5 *645:18 *920:A1 36.0533 
6 *645:18 *1019:B 20.2546 
7 *645:4 *1055:A 12.3134 
*END

*D_NET *646 0.00633217
*CONN
*I *1058:A I *D sky130_fd_sc_hd__nand2_1
*I *930:A1 I *D sky130_fd_sc_hd__a222oi_1
*I *1019:C I *D sky130_fd_sc_hd__nand4_1
*I *1054:A I *D sky130_fd_sc_hd__nand2_1
*I *1395:Q O *D sky130_fd_sc_hd__dfrtp_1
*CAP
1 *1058:A 7.87581e-05
2 *930:A1 0.00105311
3 *1019:C 0.000124921
4 *1054:A 7.23606e-05
5 *1395:Q 4.23535e-05
6 *646:23 0.00282887
7 *646:9 0.00186694
8 *646:5 0.000264857
9 *930:A1 *935:A1 0
10 *1019:C *1019:D 0
11 *1054:A *774:90 0
12 *646:23 *647:21 0
13 *646:23 *649:23 0
14 *646:23 *684:25 0
15 *915:A1 *930:A1 0
16 *915:B1 *930:A1 0
17 *930:A2 *930:A1 0
18 *940:A2 *930:A1 0
19 *940:B1 *930:A1 0
20 *1019:B *646:23 0
21 *1036:B *930:A1 0
22 *1036:C *1019:C 0
23 *1395:D *1054:A 0
24 *1395:D *646:23 0
25 *233:42 *930:A1 0
26 *252:14 *930:A1 0
27 *315:942 *1054:A 0
28 *315:956 *1054:A 0
29 *315:968 *1058:A 0
30 *360:283 *646:23 0
31 *603:671 *1054:A 0
32 *603:671 *1058:A 0
33 *603:671 *646:23 0
34 *620:41 *930:A1 0
*RES
1 *1395:Q *646:5 10.2464 
2 *646:5 *646:9 7.5 
3 *646:9 *1054:A 15.4429 
4 *646:9 *646:23 17.8575 
5 *646:23 *1019:C 16.4071 
6 *646:23 *930:A1 45.4562 
7 *646:5 *1058:A 20.0768 
*END

*D_NET *647 0.00632409
*CONN
*I *935:A1 I *D sky130_fd_sc_hd__a22oi_1
*I *1019:D I *D sky130_fd_sc_hd__nand4_1
*I *1061:A I *D sky130_fd_sc_hd__nand2_1
*I *1057:A I *D sky130_fd_sc_hd__nand2_1
*I *1396:Q O *D sky130_fd_sc_hd__dfrtp_1
*CAP
1 *935:A1 0.000804225
2 *1019:D 0.000124066
3 *1061:A 2.55425e-05
4 *1057:A 0.000103103
5 *1396:Q 0
6 *647:35 0.00190087
7 *647:21 0.00213065
8 *647:4 0.00123564
9 *935:A1 *951:A1 0
10 *935:A1 *649:23 0
11 *647:21 *691:36 0
12 *647:35 *649:23 0
13 *647:35 *774:6 0
14 *647:35 *774:10 0
15 *899:A2 *935:A1 0
16 *908:C2 *647:35 0
17 *930:A1 *935:A1 0
18 *1019:C *1019:D 0
19 *1036:D *1019:D 0
20 *1037:D *1019:D 0
21 *1041:C *935:A1 0
22 *1041:D *935:A1 0
23 *1046:A *935:A1 0
24 *1046:B *935:A1 0
25 *1046:C *935:A1 0
26 *1047:A *1019:D 0
27 *1415:RESET_B *1061:A 0
28 *224:51 *935:A1 0
29 *230:12 *935:A1 0
30 *233:11 *935:A1 0
31 *315:643 *647:21 0
32 *315:653 *647:21 0
33 *315:941 *647:21 0
34 *315:956 *647:21 0
35 *316:274 *1057:A 0
36 *360:24 *647:35 0
37 *360:28 *647:35 0
38 *360:32 *1061:A 0
39 *360:32 *647:35 0
40 *360:283 *647:21 0
41 *603:434 *647:35 0
42 *620:41 *935:A1 0
43 *631:11 *647:35 0
44 *643:17 *647:35 0
45 *645:18 *647:35 0
46 *646:23 *647:21 0
*RES
1 *1396:Q *647:4 9.3 
2 *647:4 *1057:A 11.5143 
3 *647:4 *647:21 15.6075 
4 *647:21 *1061:A 14.3804 
5 *647:21 *647:35 18.3217 
6 *647:35 *1019:D 16.3893 
7 *647:35 *935:A1 32.1929 
*END

*D_NET *648 0.00682012
*CONN
*I *1064:A I *D sky130_fd_sc_hd__nand2_1
*I *1060:A I *D sky130_fd_sc_hd__nand2_1
*I *1032:A I *D sky130_fd_sc_hd__nand2_1
*I *943:C2 I *D sky130_fd_sc_hd__a222oi_1
*I *1397:Q O *D sky130_fd_sc_hd__dfrtp_1
*CAP
1 *1064:A 8.2959e-05
2 *1060:A 5.8395e-05
3 *1032:A 0.000303266
4 *943:C2 0.000645681
5 *1397:Q 0.000183104
6 *648:18 0.00267547
7 *648:11 0.00219505
8 *648:7 0.000676198
9 *943:C2 *930:B2 0
10 *943:C2 *936:A1 0
11 *943:C2 *943:B2 0
12 *943:C2 *1025:C 0
13 *943:C2 *1032:B 0
14 *1032:A *930:B2 0
15 *1032:A *1025:C 0
16 *1032:A *1032:B 0
17 *1032:A *772:11 0
18 *1060:A *774:17 0
19 *1064:A *693:22 0
20 *648:11 *692:23 0
21 *648:11 *693:22 0
22 *648:18 *692:23 0
23 *648:18 *693:22 0
24 *648:18 *695:23 0
25 *908:C2 *943:C2 0
26 *942:A1 *943:C2 0
27 *1034:D *1032:A 0
28 *1037:C *1032:A 0
29 *1062:B1 *1060:A 0
30 *235:83 *943:C2 0
31 *273:19 *943:C2 0
32 *316:225 *1064:A 0
33 *316:225 *648:11 0
34 *625:21 *1032:A 0
35 *625:21 *648:18 0
36 *628:36 *943:C2 0
37 *628:36 *648:18 0
*RES
1 *1397:Q *648:7 17.6214 
2 *648:7 *648:11 5.40662 
3 *648:11 *648:18 22.5603 
4 *648:18 *943:C2 32.8268 
5 *648:18 *1032:A 24.9429 
6 *648:11 *1060:A 18.4511 
7 *648:7 *1064:A 15.7464 
*END

*D_NET *649 0.00487414
*CONN
*I *1063:A I *D sky130_fd_sc_hd__nand2_1
*I *951:A1 I *D sky130_fd_sc_hd__a222oi_1
*I *1035:A I *D sky130_fd_sc_hd__nand4_1
*I *1067:A I *D sky130_fd_sc_hd__nand2_1
*I *1398:Q O *D sky130_fd_sc_hd__dfrtp_1
*CAP
1 *1063:A 3.50807e-05
2 *951:A1 0.000365002
3 *1035:A 0
4 *1067:A 0.000101855
5 *1398:Q 0.000222414
6 *649:23 0.00118616
7 *649:13 0.00181457
8 *649:10 0.00114906
9 *951:A1 *765:141 0
10 *1067:A *1066:A 0
11 *649:10 *693:22 0
12 *649:23 *1834:A 0
13 *649:23 *773:12 0
14 *935:A1 *951:A1 0
15 *935:A1 *649:23 0
16 *1065:A1 *649:13 0
17 *1065:B1 *649:13 0
18 *1072:A *649:23 0
19 *1074:A2 *649:23 0
20 *1152:A *649:10 0
21 *1398:D *649:10 0
22 *1398:D *649:13 0
23 *1401:D *649:23 0
24 *224:51 *951:A1 0
25 *227:53 *951:A1 0
26 *315:584 *1067:A 0
27 *315:584 *649:23 0
28 *315:591 *649:23 0
29 *316:164 *649:23 0
30 *316:235 *649:10 0
31 *316:235 *649:13 0
32 *359:31 *951:A1 0
33 *635:10 *649:23 0
34 *635:20 *649:23 0
35 *646:23 *649:23 0
36 *647:35 *649:23 0
*RES
1 *1398:Q *649:10 23.05 
2 *649:10 *649:13 23.1071 
3 *649:13 *1067:A 16.05 
4 *649:13 *649:23 18.6786 
5 *649:23 *1035:A 13.8 
6 *649:23 *951:A1 21.8402 
7 *649:10 *1063:A 10.0321 
*END

*D_NET *650 0.00443274
*CONN
*I *1066:A I *D sky130_fd_sc_hd__nand2_1
*I *899:B2 I *D sky130_fd_sc_hd__a22oi_1
*I *1035:B I *D sky130_fd_sc_hd__nand4_1
*I *1070:A I *D sky130_fd_sc_hd__nand2_1
*I *1399:Q O *D sky130_fd_sc_hd__dfrtp_1
*CAP
1 *1066:A 0.000128051
2 *899:B2 0.000738973
3 *1035:B 3.50359e-05
4 *1070:A 0
5 *1399:Q 0.000274786
6 *650:21 0.00172118
7 *650:15 0.00116758
8 *650:8 0.000367144
9 *899:B2 *910:A1 0
10 *899:B2 *922:A1 0
11 *650:8 *651:11 0
12 *650:21 *922:A1 0
13 *650:21 *692:23 0
14 *650:21 *693:22 0
15 *650:21 *695:12 0
16 *900:B1 *899:B2 0
17 *906:A1 *899:B2 0
18 *910:B2 *899:B2 0
19 *1067:A *1066:A 0
20 *1068:A2 *1066:A 0
21 *1071:A2 *650:8 0
22 *1399:D *650:8 0
23 *1406:RESET_B *650:8 0
24 *1406:RESET_B *650:15 0
25 *315:539 *650:21 0
26 *315:573 *650:15 0
27 *603:336 *650:8 0
28 *603:363 *650:8 0
*RES
1 *1399:Q *650:8 19.5679 
2 *650:8 *1070:A 13.8 
3 *650:8 *650:15 2.09821 
4 *650:15 *650:21 10.6129 
5 *650:21 *1035:B 20.9798 
6 *650:21 *899:B2 24.2666 
7 *650:15 *1066:A 16.5768 
*END

*D_NET *651 0.00470544
*CONN
*I *1069:A I *D sky130_fd_sc_hd__nand2_1
*I *1073:A I *D sky130_fd_sc_hd__nand2_1
*I *905:B2 I *D sky130_fd_sc_hd__a22oi_1
*I *1032:B I *D sky130_fd_sc_hd__nand2_1
*I *1400:Q O *D sky130_fd_sc_hd__dfrtp_1
*CAP
1 *1069:A 0
2 *1073:A 0
3 *905:B2 0.000394735
4 *1032:B 0.000330868
5 *1400:Q 0.000284531
6 *651:29 0.00136651
7 *651:21 0.00134259
8 *651:11 0.000986206
9 *905:B2 *900:B2 0
10 *905:B2 *772:11 0
11 *1032:B *1025:C 0
12 *651:21 *773:16 0
13 *651:21 *773:18 0
14 *651:29 *1025:C 0
15 *651:29 *692:23 0
16 *651:29 *773:12 0
17 *651:29 *773:14 0
18 *908:A1 *905:B2 0
19 *940:B2 *905:B2 0
20 *943:C2 *1032:B 0
21 *1032:A *1032:B 0
22 *1066:B *651:21 0
23 *1068:A2 *651:21 0
24 *1071:B1 *651:21 0
25 *1073:B *651:21 0
26 *1074:A2 *651:21 0
27 *1092:A2 *651:21 0
28 *1113:A2 *651:29 0
29 *1399:D *651:11 0
30 *1400:RESET_B *651:11 0
31 *1401:D *651:21 0
32 *1406:RESET_B *651:11 0
33 *1406:RESET_B *651:21 0
34 *315:553 *651:11 0
35 *315:573 *651:21 0
36 *315:584 *651:21 0
37 *315:591 *651:21 0
38 *315:591 *651:29 0
39 *627:27 *905:B2 0
40 *628:36 *1032:B 0
41 *634:36 *651:29 0
42 *635:20 *651:29 0
43 *650:8 *651:11 0
*RES
1 *1400:Q *651:11 24.5679 
2 *651:11 *651:21 24.625 
3 *651:21 *651:29 22.9464 
4 *651:29 *1032:B 25.3 
5 *651:29 *905:B2 33.204 
6 *651:21 *1073:A 9.3 
7 *651:11 *1069:A 9.3 
*END

*D_NET *652 0.00488316
*CONN
*I *1234:A I *D sky130_fd_sc_hd__nand2_1
*I *1237:A I *D sky130_fd_sc_hd__nand2_1
*I *1038:A I *D sky130_fd_sc_hd__nor3b_1
*I *901:B2 I *D sky130_fd_sc_hd__a222oi_1
*I *1455:Q O *D sky130_fd_sc_hd__dfrtp_1
*CAP
1 *1234:A 7.23606e-05
2 *1237:A 2.0535e-05
3 *1038:A 0
4 *901:B2 0.00120487
5 *1455:Q 0.000278506
6 *652:16 0.0019059
7 *652:9 0.000885844
8 *652:5 0.000515147
9 *901:B2 *922:B2 0
10 *901:B2 *1838:A 0
11 *1234:A *663:26 0
12 *652:9 *1455:CLK 0
13 *652:16 *1018:A 0
14 *652:16 *1247:A 0
15 *652:16 *674:14 0
16 *901:B1 *901:B2 0
17 *941:A1 *901:B2 0
18 *1018:C *652:16 0
19 *1038:B *901:B2 0
20 *1038:B *652:16 0
21 *1233:A2 *652:16 0
22 *228:19 *901:B2 0
23 *228:26 *901:B2 0
24 *242:10 *901:B2 0
25 *242:20 *901:B2 0
26 *315:814 *652:16 0
27 *315:826 *1237:A 0
28 *315:826 *652:5 0
29 *315:826 *652:9 0
30 *315:826 *652:16 0
31 *316:940 *1234:A 0
32 *603:616 *1234:A 0
33 *609:26 *652:16 0
*RES
1 *1455:Q *652:5 15.175 
2 *652:5 *652:9 3.42857 
3 *652:9 *652:16 24.4107 
4 *652:16 *901:B2 44.0946 
5 *652:16 *1038:A 9.3 
6 *652:9 *1237:A 9.72857 
7 *652:5 *1234:A 19.9429 
*END

*D_NET *653 0.00839729
*CONN
*I *913:C2 I *D sky130_fd_sc_hd__a222oi_1
*I *1010:A I *D sky130_fd_sc_hd__nor2_1
*I *1264:A I *D sky130_fd_sc_hd__nand2_1
*I *1267:A I *D sky130_fd_sc_hd__nand2_1
*I *1465:Q O *D sky130_fd_sc_hd__dfrtp_1
*CAP
1 *913:C2 0.00124646
2 *1010:A 0.000204404
3 *1264:A 6.58832e-05
4 *1267:A 0.000223748
5 *1465:Q 0
6 *653:38 0.00335563
7 *653:10 0.000843016
8 *653:4 0.00245815
9 *913:C2 *903:B2 0
10 *913:C2 *908:B2 0
11 *913:C2 *914:B2 0
12 *913:C2 *917:B2 0
13 *913:C2 *659:16 0
14 *913:C2 *680:32 0
15 *913:C2 *682:50 0
16 *913:C2 *682:66 0
17 *913:C2 *765:11 0
18 *1010:A *907:A1 0
19 *1010:A *948:C2 0
20 *1264:A *1262:A 0
21 *653:10 *1262:A 0
22 *653:10 *768:19 0
23 *653:38 *921:A1 0
24 *653:38 *659:16 0
25 *653:38 *682:50 0
26 *653:38 *683:29 0
27 *653:38 *689:17 0
28 *653:38 *689:38 0
29 *909:C *913:C2 0
30 *925:A2 *913:C2 0
31 *1013:C *1010:A 0
32 *1030:D *913:C2 0
33 *1261:B *653:38 0
34 *1263:A *653:10 0
35 *1263:B *653:10 0
36 *1264:B *1264:A 0
37 *1266:B1 *1267:A 0
38 *1438:D *653:38 0
39 *1465:RESET_B *653:10 0
40 *228:35 *913:C2 0
41 *235:40 *913:C2 0
42 *315:299 *1267:A 0
43 *579:12 *1267:A 0
44 *579:12 *653:10 0
45 *603:875 *653:10 0
*RES
1 *1465:Q *653:4 9.3 
2 *653:4 *653:10 16.4643 
3 *653:10 *1267:A 19.0857 
4 *653:10 *1264:A 15.175 
5 *653:4 *653:38 19.4725 
6 *653:38 *1010:A 18.3625 
7 *653:38 *913:C2 30.7506 
*END

*D_NET *654 0.00831451
*CONN
*I *921:B2 I *D sky130_fd_sc_hd__a22oi_1
*I *1011:A I *D sky130_fd_sc_hd__nand3_1
*I *1268:A I *D sky130_fd_sc_hd__nand2_1
*I *1271:A I *D sky130_fd_sc_hd__nand2_1
*I *1466:Q O *D sky130_fd_sc_hd__dfrtp_1
*CAP
1 *921:B2 0.000601229
2 *1011:A 0
3 *1268:A 0.00044018
4 *1271:A 0.000277223
5 *1466:Q 0.000239147
6 *654:40 0.00280568
7 *654:19 0.00303965
8 *654:5 0.000911396
9 *921:B2 *907:A1 0
10 *921:B2 *914:B2 0
11 *921:B2 *921:A1 0
12 *921:B2 *657:35 0
13 *1268:A *1180:A 0
14 *1271:A *763:30 0
15 *654:5 *763:30 0
16 *654:19 *656:25 0
17 *654:19 *689:17 0
18 *654:40 *682:50 0
19 *654:40 *688:40 0
20 *654:40 *689:38 0
21 *923:C2 *921:B2 0
22 *1013:C *921:B2 0
23 *1180:B *1268:A 0
24 *1182:B *1268:A 0
25 *1269:B *1268:A 0
26 *1271:B *1271:A 0
27 *1272:A2 *1271:A 0
28 *1437:RESET_B *654:19 0
29 *1466:D *1271:A 0
30 *1466:RESET_B *654:5 0
31 *316:688 *1268:A 0
32 *592:200 *654:19 0
33 *603:907 *654:19 0
*RES
1 *1466:Q *654:5 14.3536 
2 *654:5 *1271:A 15.0857 
3 *654:5 *654:19 13.935 
4 *654:19 *1268:A 20.5443 
5 *654:19 *654:40 12.2861 
6 *654:40 *1011:A 13.8 
7 *654:40 *921:B2 26.6393 
*END

*D_NET *655 0.00708199
*CONN
*I *926:A I *D sky130_fd_sc_hd__nand2_1
*I *1010:B I *D sky130_fd_sc_hd__nor2_1
*I *1273:A I *D sky130_fd_sc_hd__nand2_1
*I *1270:A I *D sky130_fd_sc_hd__nand2_1
*I *1467:Q O *D sky130_fd_sc_hd__dfrtp_1
*CAP
1 *926:A 0.000755454
2 *1010:B 0.000261614
3 *1273:A 0
4 *1270:A 9.88248e-05
5 *1467:Q 0
6 *655:38 0.0031236
7 *655:9 0.000417395
8 *655:5 0.0024251
9 *926:A *929:B2 0
10 *926:A *937:B2 0
11 *1010:B *907:A1 0
12 *1010:B *1011:B 0
13 *655:9 *656:25 0
14 *655:38 *929:B2 0
15 *655:38 *937:B2 0
16 *655:38 *1024:A 0
17 *655:38 *1024:C 0
18 *655:38 *1178:A 0
19 *655:38 *656:25 0
20 *655:38 *686:30 0
21 *655:38 *687:12 0
22 *655:38 *687:40 0
23 *655:38 *690:31 0
24 *655:38 *765:37 0
25 *914:A1 *926:A 0
26 *937:B1 *926:A 0
27 *1011:C *1010:B 0
28 *1044:C *655:38 0
29 *1045:C *926:A 0
30 *1273:B *1270:A 0
31 *1273:B *655:9 0
32 *1275:A *1270:A 0
33 *235:49 *926:A 0
34 *316:617 *655:9 0
35 *316:627 *1270:A 0
36 *603:909 *655:9 0
*RES
1 *1467:Q *655:5 13.8 
2 *655:5 *655:9 11.3929 
3 *655:9 *1270:A 11.5143 
4 *655:9 *1273:A 9.3 
5 *655:5 *655:38 19.7382 
6 *655:38 *1010:B 23.0046 
7 *655:38 *926:A 21.7334 
*END

*D_NET *656 0.00713666
*CONN
*I *1011:B I *D sky130_fd_sc_hd__nand3_1
*I *937:B2 I *D sky130_fd_sc_hd__a222oi_1
*I *1277:A I *D sky130_fd_sc_hd__nand2_1
*I *1274:A I *D sky130_fd_sc_hd__nand2_1
*I *1468:Q O *D sky130_fd_sc_hd__dfrtp_1
*CAP
1 *1011:B 0.000185896
2 *937:B2 0.000713102
3 *1277:A 0
4 *1274:A 0.000417161
5 *1468:Q 2.56688e-05
6 *656:33 0.00120606
7 *656:25 0.0022265
8 *656:7 0.00236227
9 *937:B2 *907:A1 0
10 *937:B2 *689:38 0
11 *937:B2 *690:31 0
12 *1011:B *921:A1 0
13 *1011:B *1024:A 0
14 *656:25 *657:12 0
15 *656:25 *686:11 0
16 *656:25 *686:30 0
17 *656:25 *687:12 0
18 *656:25 *689:17 0
19 *656:25 *765:37 0
20 *656:33 *1024:A 0
21 *926:A *937:B2 0
22 *1010:B *1011:B 0
23 *1044:C *656:33 0
24 *1045:C *937:B2 0
25 *1176:B *1274:A 0
26 *1176:B *656:25 0
27 *1205:B *656:33 0
28 *1435:D *656:25 0
29 *1436:RESET_B *1274:A 0
30 *315:371 *656:33 0
31 *316:559 *656:25 0
32 *603:907 *656:25 0
33 *603:909 *1274:A 0
34 *603:909 *656:25 0
35 *611:9 *656:25 0
36 *611:33 *656:33 0
37 *654:19 *656:25 0
38 *655:9 *656:25 0
39 *655:38 *937:B2 0
40 *655:38 *656:25 0
*RES
1 *1468:Q *656:7 14.3357 
2 *656:7 *1274:A 22.7286 
3 *656:7 *656:25 24.596 
4 *656:25 *1277:A 9.3 
5 *656:25 *656:33 10.9554 
6 *656:33 *937:B2 23.8666 
7 *656:33 *1011:B 18.0232 
*END

*D_NET *657 0.00531943
*CONN
*I *1031:A I *D sky130_fd_sc_hd__nor4_1
*I *943:B2 I *D sky130_fd_sc_hd__a222oi_1
*I *1279:A I *D sky130_fd_sc_hd__nand2_1
*I *1276:A I *D sky130_fd_sc_hd__nand2_1
*I *1469:Q O *D sky130_fd_sc_hd__dfrtp_1
*CAP
1 *1031:A 0.000154593
2 *943:B2 0.00105691
3 *1279:A 0.000100108
4 *1276:A 0.000183104
5 *1469:Q 0.000303578
6 *657:35 0.00188313
7 *657:23 0.000961527
8 *657:12 0.000676471
9 *943:B2 *917:B2 0
10 *943:B2 *921:A1 0
11 *1031:A *945:A1 0
12 *1031:A *945:B2 0
13 *657:12 *765:14 0
14 *657:23 *921:A1 0
15 *657:23 *765:14 0
16 *657:35 *1280:A 0
17 *907:C2 *1031:A 0
18 *907:C2 *657:35 0
19 *908:B1 *943:B2 0
20 *909:C *943:B2 0
21 *916:A *943:B2 0
22 *921:B2 *657:35 0
23 *923:C2 *657:35 0
24 *929:B1 *943:B2 0
25 *932:A3 *943:B2 0
26 *943:C2 *943:B2 0
27 *944:D *943:B2 0
28 *1205:B *1276:A 0
29 *1205:B *657:12 0
30 *1205:B *657:23 0
31 *1445:RESET_B *1276:A 0
32 *235:41 *943:B2 0
33 *235:83 *943:B2 0
34 *316:50 *1279:A 0
35 *316:50 *657:35 0
36 *316:57 *657:23 0
37 *316:58 *1276:A 0
38 *656:25 *657:12 0
*RES
1 *1469:Q *657:12 20.6036 
2 *657:12 *1276:A 17.6214 
3 *657:12 *657:23 8.875 
4 *657:23 *1279:A 11.3893 
5 *657:23 *657:35 18.6518 
6 *657:35 *943:B2 33.2384 
7 *657:35 *1031:A 17.2554 
*END

*D_NET *658 0.00602015
*CONN
*I *1030:A I *D sky130_fd_sc_hd__nand4_1
*I *950:B2 I *D sky130_fd_sc_hd__a222oi_1
*I *1280:A I *D sky130_fd_sc_hd__nand2_1
*I *1283:A I *D sky130_fd_sc_hd__nand2_1
*I *1470:Q O *D sky130_fd_sc_hd__dfrtp_1
*CAP
1 *1030:A 0
2 *950:B2 0.00202013
3 *1280:A 0.000196348
4 *1283:A 0.000433161
5 *1470:Q 0
6 *658:27 0.00238057
7 *658:4 0.000989941
8 *950:B2 *914:B2 0
9 *950:B2 *917:B2 0
10 *950:B2 *921:A1 0
11 *950:B2 *948:C2 0
12 *950:B2 *679:34 0
13 *950:B2 *691:36 0
14 *658:27 *945:A1 0
15 *658:27 *1013:A 0
16 *900:A2 *950:B2 0
17 *906:A1 *950:B2 0
18 *949:A1 *950:B2 0
19 *950:B1 *950:B2 0
20 *1013:C *1280:A 0
21 *1030:C *658:27 0
22 *1283:B *1283:A 0
23 *1284:A2 *1283:A 0
24 *1470:RESET_B *1283:A 0
25 *230:43 *950:B2 0
26 *316:50 *1280:A 0
27 *657:35 *1280:A 0
*RES
1 *1470:Q *658:4 9.3 
2 *658:4 *1283:A 18.3714 
3 *658:4 *1280:A 22.5321 
4 *658:4 *658:27 7.55357 
5 *658:27 *950:B2 40.2388 
6 *658:27 *1030:A 9.3 
*END

*D_NET *659 0.00421519
*CONN
*I *1285:A I *D sky130_fd_sc_hd__nand2_1
*I *1282:A I *D sky130_fd_sc_hd__nand2_1
*I *903:B2 I *D sky130_fd_sc_hd__a221oi_1
*I *1031:B I *D sky130_fd_sc_hd__nor4_1
*I *1471:Q O *D sky130_fd_sc_hd__dfrtp_1
*CAP
1 *1285:A 0
2 *1282:A 9.58301e-05
3 *903:B2 0.00107624
4 *1031:B 2.56688e-05
5 *1471:Q 9.52765e-05
6 *659:38 9.58301e-05
7 *659:16 0.00191649
8 *659:8 0.000909854
9 *903:B2 *907:C1 0
10 *903:B2 *765:11 0
11 *903:B2 *765:97 0
12 *1282:A *660:27 0
13 *659:16 *907:C1 0
14 *659:16 *908:B2 0
15 *659:16 *917:B2 0
16 *659:16 *921:A1 0
17 *659:16 *1012:B 0
18 *659:16 *683:29 0
19 *910:B2 *903:B2 0
20 *913:C2 *903:B2 0
21 *913:C2 *659:16 0
22 *925:A2 *659:16 0
23 *1285:B *659:8 0
24 *1287:A *659:8 0
25 *230:52 *903:B2 0
26 *234:63 *903:B2 0
27 *234:63 *659:16 0
28 *284:26 *903:B2 0
29 *316:50 *659:16 0
30 *653:38 *659:16 0
*RES
1 *1471:Q *659:8 15.9786 
2 *659:8 *659:16 13.2975 
3 *659:16 *1031:B 14.3357 
4 *659:16 *903:B2 26.2697 
5 *659:8 *659:38 4.5 
6 *659:38 *1282:A 11.5143 
7 *659:38 *1285:A 9.3 
*END

*D_NET *660 0.00531211
*CONN
*I *906:B2 I *D sky130_fd_sc_hd__a22oi_1
*I *1030:B I *D sky130_fd_sc_hd__nand4_1
*I *1286:A I *D sky130_fd_sc_hd__nand2_1
*I *1289:A I *D sky130_fd_sc_hd__nand2_1
*I *1472:Q O *D sky130_fd_sc_hd__dfrtp_1
*CAP
1 *906:B2 0
2 *1030:B 0.000125746
3 *1286:A 0.000138142
4 *1289:A 0.000242998
5 *1472:Q 0
6 *660:52 0.00127643
7 *660:27 0.00201673
8 *660:7 0.000639325
9 *660:4 0.000872738
10 *1030:B *914:B2 0
11 *1030:B *948:C2 0
12 *660:27 *1012:A 0
13 *660:27 *682:66 0
14 *660:52 *942:B2 0
15 *660:52 *682:66 0
16 *918:A3 *660:52 0
17 *924:B *660:52 0
18 *932:A3 *660:52 0
19 *948:C1 *660:52 0
20 *1282:A *660:27 0
21 *1284:A1 *660:7 0
22 *1284:B1 *660:27 0
23 *1287:B *1286:A 0
24 *1470:D *660:27 0
25 *228:35 *660:52 0
26 *231:26 *660:52 0
27 *234:48 *660:52 0
28 *235:40 *660:52 0
29 *316:733 *1286:A 0
30 *360:441 *660:27 0
31 *360:446 *1286:A 0
32 *360:446 *660:7 0
33 *360:446 *660:27 0
34 *588:14 *660:52 0
35 *606:36 *660:52 0
*RES
1 *1472:Q *660:4 9.3 
2 *660:4 *660:7 5.48214 
3 *660:7 *1289:A 14.3714 
4 *660:7 *1286:A 21.3893 
5 *660:4 *660:27 12.8571 
6 *660:27 *1030:B 21.1571 
7 *660:27 *660:52 45.1786 
8 *660:52 *906:B2 9.3 
*END

*D_NET *661 0.00479359
*CONN
*I *1015:A I *D sky130_fd_sc_hd__nor3_1
*I *914:B2 I *D sky130_fd_sc_hd__a222oi_1
*I *1291:A I *D sky130_fd_sc_hd__nand2_1
*I *1288:A I *D sky130_fd_sc_hd__nand2_1
*I *1473:Q O *D sky130_fd_sc_hd__dfrtp_1
*CAP
1 *1015:A 2.277e-05
2 *914:B2 0.000944098
3 *1291:A 0.00019879
4 *1288:A 6.70024e-05
5 *1473:Q 1.04805e-05
6 *661:30 0.00202795
7 *661:11 0.000358367
8 *661:8 0.00116413
9 *914:B2 *1012:A 0
10 *661:11 *1472:CLK 0
11 *661:11 *765:54 0
12 *661:30 *934:C2 0
13 *661:30 *1255:A 0
14 *661:30 *1472:CLK 0
15 *661:30 *683:29 0
16 *661:30 *765:11 0
17 *661:30 *765:54 0
18 *913:C2 *914:B2 0
19 *921:B1 *914:B2 0
20 *921:B2 *914:B2 0
21 *923:C2 *914:B2 0
22 *939:A3 *914:B2 0
23 *950:B2 *914:B2 0
24 *1030:B *914:B2 0
25 *1030:D *914:B2 0
26 *234:72 *914:B2 0
27 *315:169 *1288:A 0
28 *315:169 *1291:A 0
29 *593:11 *1288:A 0
30 *593:11 *1291:A 0
*RES
1 *1473:Q *661:8 17.4868 
2 *661:8 *661:11 3.74527 
3 *661:11 *1288:A 15.2911 
4 *661:11 *1291:A 18.3625 
5 *661:8 *661:30 7.27653 
6 *661:30 *914:B2 43.1973 
7 *661:30 *1015:A 14.3804 
*END

*D_NET *662 0.00590445
*CONN
*I *920:C2 I *D sky130_fd_sc_hd__a222oi_1
*I *1014:A I *D sky130_fd_sc_hd__nand2_1
*I *1295:A I *D sky130_fd_sc_hd__nand2_1
*I *1292:A I *D sky130_fd_sc_hd__nand2_1
*I *1474:Q O *D sky130_fd_sc_hd__dfrtp_1
*CAP
1 *920:C2 0.00116624
2 *1014:A 1.21715e-05
3 *1295:A 0.000202138
4 *1292:A 0.000368854
5 *1474:Q 0.000298756
6 *662:34 0.0020297
7 *662:20 0.00110621
8 *662:8 0.000720386
9 *920:C2 uo_out[2] 0
10 *920:C2 uo_out[4] 0
11 *920:C2 uo_out[7] 0
12 *920:C2 *928:A1 0
13 *920:C2 *934:C2 0
14 *920:C2 *942:B2 0
15 *1014:A *1461:CLK 0
16 *1014:A *665:14 0
17 *1292:A *770:19 0
18 *1295:A *681:15 0
19 *1295:A *770:10 0
20 *1295:A *770:19 0
21 *662:8 *1259:A 0
22 *662:8 *770:19 0
23 *662:20 *765:54 0
24 *662:34 *934:C2 0
25 *662:34 *765:54 0
26 *920:C1 *920:C2 0
27 *932:A1 *920:C2 0
28 *944:B *920:C2 0
29 *1256:B *1292:A 0
30 *1256:B *662:8 0
31 *1257:B *1295:A 0
32 *1257:B *662:8 0
33 *1295:B *1295:A 0
34 *1462:D *1295:A 0
35 *1475:D *1295:A 0
36 *269:20 *920:C2 0
37 *284:26 *920:C2 0
38 *315:115 *662:34 0
39 *316:736 *1292:A 0
40 *603:109 *920:C2 0
41 *603:109 *662:34 0
42 *603:114 *662:34 0
*RES
1 *1474:Q *662:8 20.2375 
2 *662:8 *1292:A 21.4875 
3 *662:8 *662:20 3.60113 
4 *662:20 *1295:A 21.7368 
5 *662:20 *662:34 3.1302 
6 *662:34 *1014:A 17.4868 
7 *662:34 *920:C2 22.9193 
*END

*D_NET *663 0.00703243
*CONN
*I *1241:A I *D sky130_fd_sc_hd__nand2_1
*I *1040:D I *D sky130_fd_sc_hd__nand4b_1
*I *910:A1 I *D sky130_fd_sc_hd__a221oi_1
*I *1238:A I *D sky130_fd_sc_hd__nand2_1
*I *1456:Q O *D sky130_fd_sc_hd__dfrtp_1
*CAP
1 *1241:A 0.000128046
2 *1040:D 3.50807e-05
3 *910:A1 0.000949516
4 *1238:A 0
5 *1456:Q 0
6 *663:27 0.00142054
7 *663:26 0.00195563
8 *663:10 0.00196763
9 *663:4 0.000575995
10 *910:A1 *682:66 0
11 *1241:A *779:67 0
12 *663:26 *1456:CLK 0
13 *663:26 *765:135 0
14 *663:26 *778:20 0
15 *663:26 *778:26 0
16 *663:26 *779:8 0
17 *663:26 *779:15 0
18 *663:26 *779:47 0
19 *663:26 *779:50 0
20 *899:A1 *910:A1 0
21 *899:A1 *663:27 0
22 *899:B2 *910:A1 0
23 *902:A *910:A1 0
24 *902:B *910:A1 0
25 *902:D *910:A1 0
26 *903:A1 *910:A1 0
27 *903:C1 *910:A1 0
28 *910:A2 *910:A1 0
29 *924:B *910:A1 0
30 *936:A2 *910:A1 0
31 *950:B1 *910:A1 0
32 *1016:D_N *663:26 0
33 *1046:B *910:A1 0
34 *1046:B *663:27 0
35 *1234:A *663:26 0
36 *1239:A *663:10 0
37 *1239:B *663:26 0
38 *1240:B *1241:A 0
39 *1240:B *663:10 0
40 *1242:B1 *1241:A 0
41 *1454:D *663:26 0
42 *233:11 *910:A1 0
43 *233:22 *910:A1 0
44 *316:932 *663:26 0
45 *316:940 *663:10 0
46 *316:940 *663:26 0
47 *316:945 *663:26 0
48 *316:950 *663:26 0
49 *316:961 *663:26 0
50 *316:963 *663:26 0
51 *605:23 *663:26 0
52 *610:14 *663:26 0
53 *641:40 *910:A1 0
*RES
1 *1456:Q *663:4 9.3 
2 *663:4 *663:10 18.375 
3 *663:10 *1238:A 9.3 
4 *663:10 *663:26 43.2679 
5 *663:26 *663:27 9.16071 
6 *663:27 *910:A1 38.6393 
7 *663:27 *1040:D 10.0321 
8 *663:4 *1241:A 21.1929 
*END

*D_NET *664 0.00348051
*CONN
*I *928:A1 I *D sky130_fd_sc_hd__a22oi_1
*I *1015:B I *D sky130_fd_sc_hd__nor3_1
*I *1297:A I *D sky130_fd_sc_hd__nand2_1
*I *1294:A I *D sky130_fd_sc_hd__nand2_1
*I *1475:Q O *D sky130_fd_sc_hd__dfrtp_1
*CAP
1 *928:A1 0.000781545
2 *1015:B 0.000284787
3 *1297:A 2.0535e-05
4 *1294:A 0
5 *1475:Q 0.000184815
6 *664:34 0.0012533
7 *664:23 0.00048911
8 *664:11 0.000466422
9 *928:A1 *672:15 0
10 *928:A1 *679:34 0
11 *1015:B *1461:CLK 0
12 *1015:B *665:14 0
13 *1015:B *680:32 0
14 *1015:B *681:38 0
15 *664:11 *1831:A 0
16 *664:11 *770:5 0
17 *664:11 *770:44 0
18 *664:23 *770:44 0
19 *664:34 *681:38 0
20 *920:C2 *928:A1 0
21 *932:A2 *928:A1 0
22 *1253:B *1015:B 0
23 *1254:A2 *1015:B 0
24 *1297:B *664:23 0
25 *1299:B *664:23 0
26 *1299:B *664:34 0
27 *269:20 *928:A1 0
28 *315:87 *664:23 0
29 *315:89 *664:23 0
30 *316:26 *664:23 0
31 *316:811 *664:23 0
32 *316:811 *664:34 0
33 *316:823 *664:34 0
*RES
1 *1475:Q *664:11 13.2821 
2 *664:11 *1294:A 9.3 
3 *664:11 *664:23 15.0893 
4 *664:23 *1297:A 9.72857 
5 *664:23 *664:34 8.58036 
6 *664:34 *1015:B 20.1839 
7 *664:34 *928:A1 24.4489 
*END

*D_NET *665 0.00262001
*CONN
*I *934:B2 I *D sky130_fd_sc_hd__a222oi_1
*I *1014:B I *D sky130_fd_sc_hd__nand2_1
*I *1301:A I *D sky130_fd_sc_hd__nand2_1
*I *1298:A I *D sky130_fd_sc_hd__nand2_1
*I *1476:Q O *D sky130_fd_sc_hd__dfrtp_1
*CAP
1 *934:B2 0.000535408
2 *1014:B 0
3 *1301:A 0.000216688
4 *1298:A 0
5 *1476:Q 0.000208745
6 *665:14 0.000342533
7 *665:11 0.000349163
8 *665:8 0.000967471
9 *1301:A *1461:CLK 0
10 *665:14 *1461:CLK 0
11 *948:A2 *934:B2 0
12 *1014:A *665:14 0
13 *1015:B *665:14 0
14 *1015:C *665:11 0
15 *1031:C *665:8 0
16 *1298:B *665:14 0
17 *1299:A *1301:A 0
18 *1299:B *1301:A 0
19 *1461:RESET_B *1301:A 0
20 *1461:RESET_B *665:8 0
21 *1461:RESET_B *665:14 0
22 *278:11 *934:B2 0
23 *284:26 *934:B2 0
24 *588:14 *934:B2 0
25 *603:35 *1301:A 0
26 *603:37 *1301:A 0
*RES
1 *1476:Q *665:8 22.9786 
2 *665:8 *665:11 4.66071 
3 *665:11 *665:14 7.35714 
4 *665:14 *1298:A 13.8 
5 *665:14 *1301:A 18.7821 
6 *665:11 *1014:B 9.3 
7 *665:8 *934:B2 29.9161 
*END

*D_NET *666 0.00491938
*CONN
*I *1008:A I *D sky130_fd_sc_hd__nor3_1
*I *942:B2 I *D sky130_fd_sc_hd__a222oi_1
*I *1300:A I *D sky130_fd_sc_hd__nand2_1
*I *1303:A I *D sky130_fd_sc_hd__nand2_1
*I *1477:Q O *D sky130_fd_sc_hd__dfrtp_1
*CAP
1 *1008:A 0
2 *942:B2 0.000976916
3 *1300:A 8.57316e-05
4 *1303:A 0.000274071
5 *1477:Q 0
6 *666:30 0.00188042
7 *666:5 0.00057927
8 *666:4 0.00112297
9 *942:B2 *920:B2 0
10 *942:B2 *941:B2 0
11 *1300:A *948:B2 0
12 *1300:A *1304:A 0
13 *1303:A *1477:CLK 0
14 *666:30 *920:B2 0
15 *666:30 *941:B2 0
16 *909:B *942:B2 0
17 *909:C *942:B2 0
18 *918:A2 *942:B2 0
19 *918:A3 *942:B2 0
20 *920:C2 *942:B2 0
21 *944:B *942:B2 0
22 *1009:C *1300:A 0
23 *1305:A *1303:A 0
24 *1305:B *1303:A 0
25 *1309:B *666:30 0
26 *1477:RESET_B *1303:A 0
27 *1478:D *1303:A 0
28 *230:52 *942:B2 0
29 *231:26 *942:B2 0
30 *231:37 *942:B2 0
31 *235:40 *942:B2 0
32 *236:49 *942:B2 0
33 *248:13 *942:B2 0
34 *273:19 *942:B2 0
35 *284:26 *942:B2 0
36 *660:52 *942:B2 0
*RES
1 *1477:Q *666:4 9.3 
2 *666:4 *666:5 4.64286 
3 *666:5 *1303:A 24.1036 
4 *666:5 *1300:A 20.2464 
5 *666:4 *666:30 24.0536 
6 *666:30 *942:B2 40.6434 
7 *666:30 *1008:A 13.8 
*END

*D_NET *667 0.0015788
*CONN
*I *1307:A I *D sky130_fd_sc_hd__nand2_1
*I *949:B2 I *D sky130_fd_sc_hd__a22oi_1
*I *1009:A I *D sky130_fd_sc_hd__nand4_1
*I *1304:A I *D sky130_fd_sc_hd__nand2_1
*I *1478:Q O *D sky130_fd_sc_hd__dfrtp_1
*CAP
1 *1307:A 0
2 *949:B2 0.000398421
3 *1009:A 0
4 *1304:A 0.000177501
5 *1478:Q 0
6 *667:31 0.000475844
7 *667:23 0.000213479
8 *667:4 0.000313556
9 *949:B2 *1009:B 0
10 *1304:A *948:B2 0
11 *667:23 *907:C1 0
12 *667:31 *669:35 0
13 *1009:C *1304:A 0
14 *1009:C *667:23 0
15 *1009:D *667:23 0
16 *1009:D *667:31 0
17 *1031:C *1304:A 0
18 *1031:C *667:23 0
19 *1300:A *1304:A 0
20 *1308:A2 *667:31 0
21 *1478:RESET_B *1304:A 0
22 *278:11 *949:B2 0
23 *588:14 *949:B2 0
*RES
1 *1478:Q *667:4 9.3 
2 *667:4 *1304:A 22.2107 
3 *667:4 *667:23 3.28571 
4 *667:23 *1009:A 9.3 
5 *667:23 *667:31 1.78571 
6 *667:31 *949:B2 27.2643 
7 *667:31 *1307:A 9.3 
*END

*D_NET *668 0.0021054
*CONN
*I *901:C2 I *D sky130_fd_sc_hd__a222oi_1
*I *1309:A I *D sky130_fd_sc_hd__nand2_1
*I *1008:B I *D sky130_fd_sc_hd__nor3_1
*I *1306:A I *D sky130_fd_sc_hd__nand2_1
*I *1479:Q O *D sky130_fd_sc_hd__dfrtp_1
*CAP
1 *901:C2 0.000574876
2 *1309:A 0
3 *1008:B 0
4 *1306:A 0.000269691
5 *1479:Q 2.56688e-05
6 *668:29 0.000690172
7 *668:21 0.000182462
8 *668:5 0.000362527
9 *901:C2 *1837:A 0
10 *901:C2 *669:10 0
11 *1306:A *913:B2 0
12 *1306:A *941:B2 0
13 *1306:A *1479:CLK 0
14 *1306:A *1480:CLK 0
15 *1306:A *776:9 0
16 *910:A2 *901:C2 0
17 *1007:C *901:C2 0
18 *1009:D *668:5 0
19 *1311:A *668:21 0
20 *1311:A *668:29 0
21 *1480:RESET_B *1306:A 0
22 *228:26 *901:C2 0
23 *232:10 *901:C2 0
24 *248:13 *901:C2 0
25 *316:823 *1306:A 0
*RES
1 *1479:Q *668:5 9.83571 
2 *668:5 *1306:A 24.0857 
3 *668:5 *668:21 1.57143 
4 *668:21 *1008:B 9.3 
5 *668:21 *668:29 2.60714 
6 *668:29 *1309:A 9.3 
7 *668:29 *901:C2 31.0589 
*END

*D_NET *669 0.00473372
*CONN
*I *1310:A I *D sky130_fd_sc_hd__nand2_1
*I *1009:B I *D sky130_fd_sc_hd__nand4_1
*I *907:C1 I *D sky130_fd_sc_hd__a222oi_1
*I *1313:A I *D sky130_fd_sc_hd__nand2_1
*I *1480:Q O *D sky130_fd_sc_hd__dfrtp_1
*CAP
1 *1310:A 2.0535e-05
2 *1009:B 0.000117689
3 *907:C1 0.00113021
4 *1313:A 0
5 *1480:Q 0.000330713
6 *669:35 0.00166737
7 *669:27 0.000788246
8 *669:10 0.000678953
9 *907:C1 *945:B2 0
10 *907:C1 *948:B2 0
11 *669:10 *776:9 0
12 *669:27 *1007:A 0
13 *901:C2 *669:10 0
14 *903:B2 *907:C1 0
15 *907:A2 *907:C1 0
16 *907:C2 *907:C1 0
17 *914:C2 *907:C1 0
18 *925:A2 *907:C1 0
19 *949:B2 *1009:B 0
20 *1007:C *669:10 0
21 *1008:C *669:27 0
22 *1009:D *1009:B 0
23 *1009:D *669:27 0
24 *1009:D *669:35 0
25 *1031:C *907:C1 0
26 *1308:A2 *669:35 0
27 *1308:B1 *669:35 0
28 *1311:B *669:27 0
29 *1313:B *669:27 0
30 *1479:D *669:35 0
31 *234:63 *907:C1 0
32 *242:20 *669:10 0
33 *248:13 *669:10 0
34 *315:29 *1009:B 0
35 *315:32 *669:27 0
36 *588:14 *907:C1 0
37 *588:14 *1009:B 0
38 *659:16 *907:C1 0
39 *667:23 *907:C1 0
40 *667:31 *669:35 0
*RES
1 *1480:Q *669:10 25.6571 
2 *669:10 *1313:A 9.3 
3 *669:10 *669:27 7.84821 
4 *669:27 *669:35 8.91071 
5 *669:35 *907:C1 43.6214 
6 *669:35 *1009:B 20.8893 
7 *669:27 *1310:A 9.72857 
*END

*D_NET *670 0.00303141
*CONN
*I *1315:A I *D sky130_fd_sc_hd__nand2_1
*I *1006:A I *D sky130_fd_sc_hd__nor2_1
*I *913:B2 I *D sky130_fd_sc_hd__a222oi_1
*I *1312:A I *D sky130_fd_sc_hd__nand2_1
*I *1481:Q O *D sky130_fd_sc_hd__dfrtp_1
*CAP
1 *1315:A 1.54013e-05
2 *1006:A 0
3 *913:B2 0.000896505
4 *1312:A 2.56688e-05
5 *1481:Q 0.000182814
6 *670:24 0.001113
7 *670:15 0.000420986
8 *670:9 0.000377041
9 *913:B2 *941:B2 0
10 *913:B2 *672:11 0
11 *913:B2 *672:15 0
12 *670:9 *1460:CLK 0
13 *670:15 *1460:CLK 0
14 *670:24 *1481:CLK 0
15 *670:24 *776:34 0
16 *1306:A *913:B2 0
17 *1459:RESET_B *670:9 0
18 *1480:D *913:B2 0
19 *1481:RESET_B *670:9 0
20 *219:20 *913:B2 0
21 *219:24 *913:B2 0
22 *228:35 *913:B2 0
23 *232:66 *913:B2 0
24 *242:20 *670:24 0
25 *269:20 *913:B2 0
26 *603:575 *670:9 0
27 *603:582 *670:9 0
*RES
1 *1481:Q *670:9 22.2286 
2 *670:9 *670:15 3.96429 
3 *670:15 *1312:A 9.83571 
4 *670:15 *670:24 9.48214 
5 *670:24 *913:B2 32.9744 
6 *670:24 *1006:A 13.8 
7 *670:9 *1315:A 9.72857 
*END

*D_NET *671 0.00452271
*CONN
*I *1007:A I *D sky130_fd_sc_hd__nand3_1
*I *922:B2 I *D sky130_fd_sc_hd__a222oi_1
*I *1319:A I *D sky130_fd_sc_hd__nand2_1
*I *1316:A I *D sky130_fd_sc_hd__nand2_1
*I *1482:Q O *D sky130_fd_sc_hd__dfrtp_1
*CAP
1 *1007:A 0.000275084
2 *922:B2 0.000911791
3 *1319:A 0.000258481
4 *1316:A 4.32091e-05
5 *1482:Q 0.000337544
6 *671:34 0.00153955
7 *671:9 0.000384258
8 *671:5 0.000772792
9 *922:B2 *1838:A 0
10 *1007:A *1481:CLK 0
11 *1319:A *776:43 0
12 *1319:A *776:57 0
13 *1319:A *777:37 0
14 *671:5 *1459:CLK 0
15 *671:34 *1838:A 0
16 *671:34 *776:34 0
17 *671:34 *776:43 0
18 *671:34 *777:22 0
19 *901:B2 *922:B2 0
20 *902:D *922:B2 0
21 *922:B1 *922:B2 0
22 *922:C1 *922:B2 0
23 *924:B *922:B2 0
24 *1315:B *671:34 0
25 *1319:B *1319:A 0
26 *1320:A2 *1319:A 0
27 *224:33 *922:B2 0
28 *227:17 *922:B2 0
29 *227:19 *922:B2 0
30 *228:19 *922:B2 0
31 *235:8 *922:B2 0
32 *235:10 *922:B2 0
33 *242:10 *922:B2 0
34 *242:20 *1319:A 0
35 *620:27 *922:B2 0
36 *620:27 *671:34 0
37 *669:27 *1007:A 0
*RES
1 *1482:Q *671:5 16.4071 
2 *671:5 *671:9 1.78571 
3 *671:9 *1316:A 10.2643 
4 *671:9 *1319:A 24.1214 
5 *671:5 *671:34 12.5714 
6 *671:34 *922:B2 34.2196 
7 *671:34 *1007:A 19.6036 
*END

*D_NET *672 0.0053655
*CONN
*I *1318:A I *D sky130_fd_sc_hd__nand2_1
*I *1006:B I *D sky130_fd_sc_hd__nor2_1
*I *1321:A I *D sky130_fd_sc_hd__nand2_1
*I *928:B2 I *D sky130_fd_sc_hd__a22oi_1
*I *1483:Q O *D sky130_fd_sc_hd__dfrtp_1
*CAP
1 *1318:A 0.000149834
2 *1006:B 2.55228e-05
3 *1321:A 0.000530749
4 *928:B2 0.00025279
5 *1483:Q 0.000242142
6 *672:15 0.00143299
7 *672:11 0.00150723
8 *672:7 0.00122424
9 *928:B2 *1479:CLK 0
10 *928:B2 *679:34 0
11 *1318:A *777:46 0
12 *672:11 *917:A1 0
13 *672:11 *765:108 0
14 *672:11 *765:125 0
15 *672:15 *917:A1 0
16 *672:15 *936:B2 0
17 *913:B2 *672:11 0
18 *913:B2 *672:15 0
19 *928:A1 *672:15 0
20 *1002:B *1321:A 0
21 *1308:A1 *1321:A 0
22 *1308:B1 *928:B2 0
23 *1310:B *928:B2 0
24 *1320:B1 *1318:A 0
25 *1320:B1 *672:11 0
26 *1326:A1 *1321:A 0
27 *1326:B1 *1321:A 0
28 *1481:RESET_B *672:11 0
29 *1483:RESET_B *1318:A 0
30 *1483:RESET_B *672:11 0
31 *219:20 *928:B2 0
32 *269:20 *672:15 0
33 *278:11 *1321:A 0
34 *360:421 *1321:A 0
35 *603:74 *928:B2 0
36 *603:74 *1321:A 0
37 *603:582 *672:11 0
38 *620:27 *1318:A 0
39 *620:27 *672:11 0
*RES
1 *1483:Q *672:7 18.8536 
2 *672:7 *672:11 17.8837 
3 *672:11 *672:15 5.76313 
4 *672:15 *928:B2 19.5411 
5 *672:15 *1321:A 25.9161 
6 *672:11 *1006:B 17.7904 
7 *672:7 *1318:A 17.2643 
*END

*D_NET *673 0.00468518
*CONN
*I *1322:A I *D sky130_fd_sc_hd__nand2_1
*I *1325:A I *D sky130_fd_sc_hd__nand2_1
*I *1007:B I *D sky130_fd_sc_hd__nand3_1
*I *936:B2 I *D sky130_fd_sc_hd__a222oi_1
*I *1484:Q O *D sky130_fd_sc_hd__dfrtp_1
*CAP
1 *1322:A 2.41714e-05
2 *1325:A 0.000688993
3 *1007:B 2.56688e-05
4 *936:B2 0.00112626
5 *1484:Q 2.56688e-05
6 *673:42 0.00078234
7 *673:8 0.00153458
8 *673:7 0.00047749
9 *936:B2 uo_out[2] 0
10 *936:B2 *917:A1 0
11 *1325:A *1485:CLK 0
12 *1325:A *776:57 0
13 *909:C *936:B2 0
14 *920:A1 *936:B2 0
15 *936:C2 *936:B2 0
16 *1002:B *1325:A 0
17 *1007:C *936:B2 0
18 *1312:B *673:8 0
19 *1314:A2 *1007:B 0
20 *1314:A2 *673:8 0
21 *1318:B *673:42 0
22 *1320:A1 *673:8 0
23 *1321:B *1325:A 0
24 *1323:A *1325:A 0
25 *1326:A2 *1325:A 0
26 *1481:D *936:B2 0
27 *1481:D *673:8 0
28 *1484:D *1325:A 0
29 *242:20 *936:B2 0
30 *242:20 *673:42 0
31 *248:13 *673:8 0
32 *273:19 *936:B2 0
33 *284:26 *936:B2 0
34 *315:57 *1325:A 0
35 *316:884 *1325:A 0
36 *316:887 *673:8 0
37 *316:889 *673:8 0
38 *360:406 *673:8 0
39 *641:40 *936:B2 0
40 *672:15 *936:B2 0
*RES
1 *1484:Q *673:7 14.3357 
2 *673:7 *673:8 8.625 
3 *673:8 *936:B2 34.8772 
4 *673:8 *1007:B 14.3357 
5 *673:7 *673:42 6.07143 
6 *673:42 *1325:A 23.7107 
7 *673:42 *1322:A 9.83571 
*END

*D_NET *674 0.0083452
*CONN
*I *1243:A I *D sky130_fd_sc_hd__nand2_1
*I *1240:A I *D sky130_fd_sc_hd__nand2_1
*I *917:A1 I *D sky130_fd_sc_hd__a221oi_1
*I *1017:A I *D sky130_fd_sc_hd__nor2_1
*I *1457:Q O *D sky130_fd_sc_hd__dfrtp_1
*CAP
1 *1243:A 9.71135e-05
2 *1240:A 0.000155339
3 *917:A1 0.00227207
4 *1017:A 5.49332e-05
5 *1457:Q 0
6 *674:14 0.00361897
7 *674:7 0.00174848
8 *674:4 0.000398294
9 *917:A1 uo_out[2] 0
10 *917:A1 uo_out[3] 0
11 *917:A1 *920:B2 0
12 *917:A1 *679:34 0
13 *917:A1 *728:11 0
14 *917:A1 *765:125 0
15 *1240:A *779:67 0
16 *1240:A *779:90 0
17 *674:14 *1458:CLK 0
18 *932:A3 *917:A1 0
19 *936:B2 *917:A1 0
20 *1018:C *917:A1 0
21 *1232:B *674:14 0
22 *1234:B *674:14 0
23 *1236:B1 *674:14 0
24 *1242:A1 *674:14 0
25 *1243:B *1243:A 0
26 *1243:B *674:7 0
27 *1244:B *1243:A 0
28 *1245:A *1243:A 0
29 *1458:D *1240:A 0
30 *1458:D *674:14 0
31 *1460:RESET_B *1017:A 0
32 *234:29 *917:A1 0
33 *284:26 *917:A1 0
34 *315:759 *674:14 0
35 *315:762 *674:14 0
36 *316:945 *674:14 0
37 *360:399 *917:A1 0
38 *360:406 *917:A1 0
39 *603:756 *674:14 0
40 *652:16 *674:14 0
41 *672:11 *917:A1 0
42 *672:15 *917:A1 0
*RES
1 *1457:Q *674:4 9.3 
2 *674:4 *674:7 10.7857 
3 *674:7 *674:14 36.5446 
4 *674:14 *1017:A 14.9696 
5 *674:14 *917:A1 37.4784 
6 *674:7 *1240:A 17.2643 
7 *674:4 *1243:A 11.3893 
*END

*D_NET *675 0.00435199
*CONN
*I *941:B2 I *D sky130_fd_sc_hd__a22oi_1
*I *1324:A I *D sky130_fd_sc_hd__nand2_1
*I *1005:A I *D sky130_fd_sc_hd__nor3b_1
*I *1327:A I *D sky130_fd_sc_hd__nand2_1
*I *1485:Q O *D sky130_fd_sc_hd__dfrtp_1
*CAP
1 *941:B2 0.00063225
2 *1324:A 0.000451335
3 *1005:A 0
4 *1327:A 0.000239575
5 *1485:Q 2.26741e-05
6 *675:18 0.000941165
7 *675:10 0.0012815
8 *675:5 0.000783497
9 *941:B2 *920:B2 0
10 *1327:A *1005:B 0
11 *1327:A *676:17 0
12 *913:B2 *941:B2 0
13 *942:B2 *941:B2 0
14 *1004:A *1324:A 0
15 *1004:B *1324:A 0
16 *1008:C *941:B2 0
17 *1009:D *941:B2 0
18 *1305:A *1327:A 0
19 *1306:A *941:B2 0
20 *1323:A *1324:A 0
21 *1323:B *1324:A 0
22 *1391:D *1324:A 0
23 *1391:SET_B *1324:A 0
24 *1480:D *941:B2 0
25 *219:20 *941:B2 0
26 *219:20 *1324:A 0
27 *248:13 *941:B2 0
28 *248:13 *1324:A 0
29 *248:13 *675:10 0
30 *316:880 *675:18 0
31 *316:884 *1324:A 0
32 *603:81 *1324:A 0
33 *603:81 *675:10 0
34 *666:30 *941:B2 0
*RES
1 *1485:Q *675:5 9.83571 
2 *675:5 *675:10 7.25893 
3 *675:10 *675:18 14.0941 
4 *675:18 *1327:A 14.5143 
5 *675:18 *1005:A 9.3 
6 *675:10 *1324:A 23.6839 
7 *675:5 *941:B2 32.6929 
*END

*D_NET *676 0.0034811
*CONN
*I *1331:A I *D sky130_fd_sc_hd__nand2_1
*I *948:B2 I *D sky130_fd_sc_hd__a222oi_1
*I *1005:C_N I *D sky130_fd_sc_hd__nor3b_1
*I *1328:A I *D sky130_fd_sc_hd__nand2_1
*I *1486:Q O *D sky130_fd_sc_hd__dfrtp_1
*CAP
1 *1331:A 0.000301395
2 *948:B2 0.000872661
3 *1005:C_N 0
4 *1328:A 0.000210551
5 *1486:Q 0
6 *676:25 0.00121941
7 *676:17 0.00035594
8 *676:4 0.000521144
9 *1328:A *1486:CLK 0
10 *1331:A *1005:B 0
11 *676:17 *1005:B 0
12 *907:C1 *948:B2 0
13 *1009:C *948:B2 0
14 *1031:C *948:B2 0
15 *1300:A *948:B2 0
16 *1304:A *948:B2 0
17 *1305:A *676:17 0
18 *1327:A *676:17 0
19 *1327:B *676:17 0
20 *1329:B *1328:A 0
21 *1486:RESET_B *1328:A 0
22 *316:872 *1331:A 0
23 *360:602 *1328:A 0
24 *588:14 *948:B2 0
25 *588:14 *1331:A 0
*RES
1 *1486:Q *676:4 9.3 
2 *676:4 *1328:A 22.925 
3 *676:4 *676:17 6.60714 
4 *676:17 *1005:C_N 9.3 
5 *676:17 *676:25 5.44643 
6 *676:25 *948:B2 33.5946 
7 *676:25 *1331:A 20.55 
*END

*D_NET *677 0.00810478
*CONN
*I *1244:A I *D sky130_fd_sc_hd__nand2_1
*I *1247:A I *D sky130_fd_sc_hd__nand2_1
*I *1018:A I *D sky130_fd_sc_hd__nand3_1
*I *920:B2 I *D sky130_fd_sc_hd__a222oi_1
*I *1458:Q O *D sky130_fd_sc_hd__dfrtp_1
*CAP
1 *1244:A 6.95881e-05
2 *1247:A 0.000346617
3 *1018:A 0.000208142
4 *920:B2 0.00177212
5 *1458:Q 6.50276e-05
6 *677:27 0.00055476
7 *677:11 0.00336301
8 *677:7 0.00172551
9 *1018:A *1017:B 0
10 *1018:A *678:12 0
11 *1247:A *1246:A 0
12 *1247:A *678:8 0
13 *1247:A *678:12 0
14 *677:11 *779:64 0
15 *917:A1 *920:B2 0
16 *920:C1 *920:B2 0
17 *941:B2 *920:B2 0
18 *942:B2 *920:B2 0
19 *1244:B *1244:A 0
20 *1244:B *677:11 0
21 *1309:B *920:B2 0
22 *1460:RESET_B *1018:A 0
23 *228:35 *920:B2 0
24 *248:13 *920:B2 0
25 *315:814 *1247:A 0
26 *360:399 *920:B2 0
27 *360:399 *677:11 0
28 *360:406 *920:B2 0
29 *609:21 *677:11 0
30 *652:16 *1018:A 0
31 *652:16 *1247:A 0
32 *666:30 *920:B2 0
*RES
1 *1458:Q *677:7 15.1571 
2 *677:7 *677:11 10.1936 
3 *677:11 *920:B2 36.2385 
4 *677:11 *677:27 3.41 
5 *677:27 *1018:A 18.4875 
6 *677:27 *1247:A 21.4161 
7 *677:7 *1244:A 15.4429 
*END

*D_NET *678 0.00280054
*CONN
*I *1246:A I *D sky130_fd_sc_hd__nand2_1
*I *1249:A I *D sky130_fd_sc_hd__nand2_1
*I *1017:B I *D sky130_fd_sc_hd__nor2_1
*I *927:A1 I *D sky130_fd_sc_hd__a222oi_1
*I *1459:Q O *D sky130_fd_sc_hd__dfrtp_1
*CAP
1 *1246:A 0.000327465
2 *1249:A 6.50276e-05
3 *1017:B 6.28885e-05
4 *927:A1 0.000591853
5 *1459:Q 4.53482e-05
6 *678:12 0.000892863
7 *678:8 0.000372717
8 *678:7 0.000442382
9 *927:A1 *881:A_N 0
10 *927:A1 *881:B 0
11 *927:A1 *886:A_N 0
12 *927:A1 *725:36 0
13 *927:A1 *728:11 0
14 *678:12 *1250:A 0
15 *678:12 *679:18 0
16 *927:B1 *927:A1 0
17 *927:B2 *927:A1 0
18 *1018:A *1017:B 0
19 *1018:A *678:12 0
20 *1247:A *1246:A 0
21 *1247:A *678:8 0
22 *1247:A *678:12 0
23 *1247:B *1246:A 0
24 *1248:B1 *678:12 0
25 *1460:RESET_B *927:A1 0
26 *1460:RESET_B *1017:B 0
27 *315:762 *1249:A 0
28 *316:932 *1246:A 0
29 *360:406 *678:12 0
*RES
1 *1459:Q *678:7 14.7464 
2 *678:7 *678:8 1.64286 
3 *678:8 *678:12 9.78571 
4 *678:12 *927:A1 31.1482 
5 *678:12 *1017:B 10.675 
6 *678:8 *1249:A 15.1571 
7 *678:7 *1246:A 20.9964 
*END

*D_NET *679 0.00677316
*CONN
*I *1018:B I *D sky130_fd_sc_hd__nand3_1
*I *1253:A I *D sky130_fd_sc_hd__nand2_1
*I *934:A1 I *D sky130_fd_sc_hd__a222oi_1
*I *1250:A I *D sky130_fd_sc_hd__nand2_1
*I *1460:Q O *D sky130_fd_sc_hd__dfrtp_1
*CAP
1 *1018:B 4.91985e-05
2 *1253:A 0.000586459
3 *934:A1 0.000143483
4 *1250:A 0.000359983
5 *1460:Q 0
6 *679:34 0.00290921
7 *679:18 0.00229666
8 *679:4 0.000428175
9 *1253:A *1012:A 0
10 *1253:A *680:5 0
11 *1253:A *681:38 0
12 *679:34 *1479:CLK 0
13 *679:34 *691:36 0
14 *679:34 *721:19 0
15 *679:34 *728:11 0
16 *907:C2 *1253:A 0
17 *917:A1 *679:34 0
18 *928:A1 *679:34 0
19 *928:B2 *679:34 0
20 *949:A1 *679:34 0
21 *950:B2 *679:34 0
22 *953:A1 *1253:A 0
23 *953:A2 *679:34 0
24 *953:B1 *1253:A 0
25 *1248:A1 *1250:A 0
26 *1250:B *1250:A 0
27 *1251:A *1250:A 0
28 *1459:RESET_B *1250:A 0
29 *1460:D *1250:A 0
30 *1460:RESET_B *1250:A 0
31 *1479:D *679:34 0
32 *232:37 *1253:A 0
33 *269:20 *934:A1 0
34 *269:20 *679:34 0
35 *278:11 *934:A1 0
36 *278:11 *679:34 0
37 *315:769 *1250:A 0
38 *360:406 *1250:A 0
39 *678:12 *1250:A 0
40 *678:12 *679:18 0
*RES
1 *1460:Q *679:4 9.3 
2 *679:4 *1250:A 26.1214 
3 *679:4 *679:18 6.14286 
4 *679:18 *679:34 26.4919 
5 *679:34 *934:A1 16.9027 
6 *679:34 *1253:A 35.1393 
7 *679:18 *1018:B 14.7643 
*END

*D_NET *680 0.00373089
*CONN
*I *945:A1 I *D sky130_fd_sc_hd__a221oi_1
*I *1013:A I *D sky130_fd_sc_hd__nor4_1
*I *1255:A I *D sky130_fd_sc_hd__nand2_1
*I *1252:A I *D sky130_fd_sc_hd__nand2_1
*I *1461:Q O *D sky130_fd_sc_hd__dfrtp_1
*CAP
1 *945:A1 0.000476156
2 *1013:A 2.56688e-05
3 *1255:A 0.00049154
4 *1252:A 3.50807e-05
5 *1461:Q 0.000298186
6 *680:32 0.000857532
7 *680:7 0.000709725
8 *680:5 0.000836997
9 *945:A1 *945:B2 0
10 *1255:A *934:C2 0
11 *1255:A *765:54 0
12 *680:7 *1461:CLK 0
13 *680:32 *1012:A 0
14 *680:32 *683:29 0
15 *913:C2 *680:32 0
16 *945:A2 *945:A1 0
17 *1015:B *680:32 0
18 *1015:C *680:32 0
19 *1030:D *680:32 0
20 *1031:A *945:A1 0
21 *1031:D *945:A1 0
22 *1253:A *680:5 0
23 *1254:A1 *680:7 0
24 *1254:B1 *680:7 0
25 *1461:D *680:7 0
26 *232:37 *680:5 0
27 *315:115 *1255:A 0
28 *315:124 *1255:A 0
29 *603:124 *1255:A 0
30 *658:27 *945:A1 0
31 *658:27 *1013:A 0
32 *661:30 *1255:A 0
*RES
1 *1461:Q *680:5 15.5857 
2 *680:5 *680:7 3.82143 
3 *680:7 *1252:A 10.0321 
4 *680:7 *1255:A 28.3762 
5 *680:5 *680:32 17.0179 
6 *680:32 *1013:A 9.83571 
7 *680:32 *945:A1 19.3 
*END

*D_NET *681 0.00507906
*CONN
*I *948:A1 I *D sky130_fd_sc_hd__a222oi_1
*I *1012:A I *D sky130_fd_sc_hd__nand2_1
*I *1256:A I *D sky130_fd_sc_hd__nand2_1
*I *1259:A I *D sky130_fd_sc_hd__nand2_1
*I *1462:Q O *D sky130_fd_sc_hd__dfrtp_1
*CAP
1 *948:A1 0.00037947
2 *1012:A 0.000275259
3 *1256:A 0
4 *1259:A 0.000653657
5 *1462:Q 0
6 *681:38 0.00140286
7 *681:15 0.00113668
8 *681:4 0.00123115
9 *948:A1 *948:C2 0
10 *1012:A *948:C2 0
11 *914:B2 *1012:A 0
12 *934:B1 *948:A1 0
13 *948:B1 *948:A1 0
14 *1015:B *681:38 0
15 *1253:A *1012:A 0
16 *1253:A *681:38 0
17 *1254:A2 *948:A1 0
18 *1257:B *681:15 0
19 *1295:A *681:15 0
20 *1295:B *681:15 0
21 *1461:RESET_B *681:38 0
22 *1462:D *681:15 0
23 *1474:D *1259:A 0
24 *1474:RESET_B *1259:A 0
25 *232:37 *681:38 0
26 *316:811 *681:38 0
27 *316:823 *681:38 0
28 *592:173 *1259:A 0
29 *660:27 *1012:A 0
30 *662:8 *1259:A 0
31 *664:34 *681:38 0
32 *680:32 *1012:A 0
*RES
1 *1462:Q *681:4 9.3 
2 *681:4 *681:15 19.3571 
3 *681:15 *1259:A 32.2107 
4 *681:15 *1256:A 9.3 
5 *681:4 *681:38 20.6786 
6 *681:38 *1012:A 19.6571 
7 *681:38 *948:A1 21.8491 
*END

*D_NET *682 0.00900876
*CONN
*I *898:B2 I *D sky130_fd_sc_hd__a22oi_1
*I *1013:B I *D sky130_fd_sc_hd__nor4_1
*I *1258:A I *D sky130_fd_sc_hd__nand2_1
*I *1261:A I *D sky130_fd_sc_hd__nand2_1
*I *1463:Q O *D sky130_fd_sc_hd__dfrtp_1
*CAP
1 *898:B2 0
2 *1013:B 0
3 *1258:A 0.00019121
4 *1261:A 0.000640513
5 *1463:Q 1.21519e-05
6 *682:66 0.00161649
7 *682:50 0.00339537
8 *682:9 0.00109686
9 *682:8 0.00205616
10 *1258:A *1473:CLK 0
11 *1258:A *1830:A 0
12 *1258:A *765:54 0
13 *1261:A *1472:CLK 0
14 *1261:A *752:12 0
15 *1261:A *768:18 0
16 *682:9 *1472:CLK 0
17 *682:9 *765:54 0
18 *682:50 *921:A1 0
19 *682:50 *1472:CLK 0
20 *682:50 *765:54 0
21 *902:D *682:66 0
22 *910:A1 *682:66 0
23 *910:A2 *682:66 0
24 *913:C2 *682:50 0
25 *913:C2 *682:66 0
26 *924:B *682:66 0
27 *1013:C *682:50 0
28 *1013:D *682:50 0
29 *1013:D *682:66 0
30 *1258:B *1258:A 0
31 *1260:A1 *1261:A 0
32 *1260:B1 *1258:A 0
33 *1463:D *1261:A 0
34 *559:31 *1261:A 0
35 *603:889 *1261:A 0
36 *605:47 *682:66 0
37 *606:36 *682:66 0
38 *653:38 *682:50 0
39 *654:40 *682:50 0
40 *660:27 *682:66 0
41 *660:52 *682:66 0
*RES
1 *1463:Q *682:8 17.4868 
2 *682:8 *682:9 0.983867 
3 *682:9 *1261:A 26.1849 
4 *682:9 *1258:A 21.4689 
5 *682:8 *682:50 16.3906 
6 *682:50 *1013:B 13.8 
7 *682:50 *682:66 47.5357 
8 *682:66 *898:B2 9.3 
*END

*D_NET *683 0.00993989
*CONN
*I *1262:A I *D sky130_fd_sc_hd__nand2_1
*I *1012:B I *D sky130_fd_sc_hd__nand2_1
*I *908:B2 I *D sky130_fd_sc_hd__a222oi_1
*I *1265:A I *D sky130_fd_sc_hd__nand2_1
*I *1464:Q O *D sky130_fd_sc_hd__dfrtp_1
*CAP
1 *1262:A 0.000396155
2 *1012:B 2.55425e-05
3 *908:B2 0.00210698
4 *1265:A 0.000449625
5 *1464:Q 4.28658e-05
6 *683:29 0.00405851
7 *683:8 0.00239841
8 *683:6 0.00046181
9 *908:B2 *917:B2 0
10 *908:B2 *929:B2 0
11 *908:B2 *934:C2 0
12 *908:B2 *940:A1 0
13 *908:B2 *765:11 0
14 *1262:A *768:19 0
15 *683:29 *1472:CLK 0
16 *683:29 *689:17 0
17 *683:29 *765:11 0
18 *683:29 *768:18 0
19 *913:C2 *908:B2 0
20 *1013:D *683:29 0
21 *1045:C *908:B2 0
22 *1261:B *1265:A 0
23 *1261:B *683:6 0
24 *1261:B *683:8 0
25 *1263:A *1262:A 0
26 *1263:B *1262:A 0
27 *1264:A *1262:A 0
28 *1266:A1 *1265:A 0
29 *1437:RESET_B *1265:A 0
30 *1437:RESET_B *683:6 0
31 *1437:RESET_B *683:8 0
32 *1464:D *1262:A 0
33 *1465:D *1265:A 0
34 *224:70 *908:B2 0
35 *233:67 *908:B2 0
36 *236:40 *908:B2 0
37 *653:10 *1262:A 0
38 *653:38 *683:29 0
39 *659:16 *908:B2 0
40 *659:16 *1012:B 0
41 *659:16 *683:29 0
42 *661:30 *683:29 0
43 *680:32 *683:29 0
*RES
1 *1464:Q *683:6 14.8357 
2 *683:6 *683:8 0.580357 
3 *683:8 *1265:A 23.5946 
4 *683:8 *683:29 15.4436 
5 *683:29 *908:B2 38.3043 
6 *683:29 *1012:B 14.3804 
7 *683:6 *1262:A 22.1929 
*END

*D_NET *684 0.0072026
*CONN
*I *1139:A I *D sky130_fd_sc_hd__nand2_1
*I *898:A1 I *D sky130_fd_sc_hd__a22oi_1
*I *1027:A I *D sky130_fd_sc_hd__nand3_1
*I *1142:A I *D sky130_fd_sc_hd__nand2_1
*I *1423:Q O *D sky130_fd_sc_hd__dfrtp_1
*CAP
1 *1139:A 0.000163248
2 *898:A1 0.00121024
3 *1027:A 4.62038e-05
4 *1142:A 0.0002408
5 *1423:Q 0
6 *684:25 0.00318782
7 *684:15 0.00210405
8 *684:5 0.000250239
9 *898:A1 *922:A1 0
10 *898:A1 *951:B2 0
11 *898:A1 *1833:A 0
12 *902:D *898:A1 0
13 *920:A1 *684:25 0
14 *950:B1 *898:A1 0
15 *1027:C *898:A1 0
16 *1139:B *1139:A 0
17 *1140:B *1139:A 0
18 *1143:A2 *1142:A 0
19 *224:63 *898:A1 0
20 *224:65 *898:A1 0
21 *230:45 *898:A1 0
22 *236:40 *898:A1 0
23 *284:26 *898:A1 0
24 *315:956 *684:25 0
25 *316:268 *1142:A 0
26 *316:312 *1139:A 0
27 *316:312 *1142:A 0
28 *360:283 *684:25 0
29 *634:36 *898:A1 0
30 *634:36 *684:25 0
31 *635:20 *898:A1 0
32 *643:17 *898:A1 0
33 *643:17 *684:25 0
34 *645:18 *684:25 0
35 *646:23 *684:25 0
*RES
1 *1423:Q *684:5 13.8 
2 *684:5 *1142:A 19.1214 
3 *684:5 *684:15 0.276786 
4 *684:15 *684:25 14.5816 
5 *684:25 *1027:A 14.7643 
6 *684:25 *898:A1 36.903 
7 *684:15 *1139:A 17.7018 
*END

*D_NET *685 0.0075848
*CONN
*I *917:B2 I *D sky130_fd_sc_hd__a221oi_1
*I *1024:B I *D sky130_fd_sc_hd__nor4b_1
*I *1171:A I *D sky130_fd_sc_hd__nand2_1
*I *1168:A I *D sky130_fd_sc_hd__nand2_1
*I *1433:Q O *D sky130_fd_sc_hd__dfrtp_1
*CAP
1 *917:B2 0.00156013
2 *1024:B 0.000204663
3 *1171:A 0.000539794
4 *1168:A 0
5 *1433:Q 8.40653e-05
6 *685:33 0.00284584
7 *685:18 0.00194354
8 *685:7 0.000406773
9 *917:B2 *900:B2 0
10 *917:B2 *921:A1 0
11 *917:B2 *929:B2 0
12 *917:B2 *934:C2 0
13 *917:B2 *940:A1 0
14 *917:B2 *697:43 0
15 *1024:B *1445:CLK 0
16 *1171:A *687:8 0
17 *1171:A *687:12 0
18 *1171:A *687:40 0
19 *1171:A *699:25 0
20 *685:33 *900:B2 0
21 *685:33 *929:B2 0
22 *685:33 *687:40 0
23 *685:33 *699:25 0
24 *908:B2 *917:B2 0
25 *913:C2 *917:B2 0
26 *925:A2 *917:B2 0
27 *943:B2 *917:B2 0
28 *950:B2 *917:B2 0
29 *1044:D *1024:B 0
30 *1170:B1 *685:7 0
31 *1188:A1 *685:18 0
32 *315:224 *1171:A 0
33 *315:274 *1171:A 0
34 *315:285 *1171:A 0
35 *360:466 *685:33 0
36 *360:472 *685:18 0
37 *578:13 *1171:A 0
38 *603:833 *685:18 0
39 *612:24 *685:33 0
40 *659:16 *917:B2 0
*RES
1 *1433:Q *685:7 11.0857 
2 *685:7 *1168:A 9.3 
3 *685:7 *685:18 15.1154 
4 *685:18 *1171:A 23.5255 
5 *685:18 *685:33 3.9386 
6 *685:33 *1024:B 21.7011 
7 *685:33 *917:B2 30.2351 
*END

*D_NET *686 0.00563152
*CONN
*I *921:A1 I *D sky130_fd_sc_hd__a22oi_1
*I *1024:A I *D sky130_fd_sc_hd__nor4b_1
*I *1172:A I *D sky130_fd_sc_hd__nand2_1
*I *1174:A I *D sky130_fd_sc_hd__nand2_1
*I *1434:Q O *D sky130_fd_sc_hd__dfrtp_1
*CAP
1 *921:A1 0.000831987
2 *1024:A 0.000212599
3 *1172:A 2.28093e-05
4 *1174:A 0.000264176
5 *1434:Q 1.21912e-05
6 *686:30 0.00208572
7 *686:11 0.000717845
8 *686:8 0.00148419
9 *921:A1 *907:A1 0
10 *921:A1 *689:38 0
11 *686:11 *689:17 0
12 *686:11 *689:38 0
13 *686:30 *1024:C 0
14 *686:30 *689:38 0
15 *686:30 *690:31 0
16 *917:B2 *921:A1 0
17 *921:B2 *921:A1 0
18 *943:B2 *921:A1 0
19 *950:B2 *921:A1 0
20 *1011:B *921:A1 0
21 *1011:B *1024:A 0
22 *1044:D *1024:A 0
23 *1173:B *1174:A 0
24 *1205:B *921:A1 0
25 *1205:B *1024:A 0
26 *315:227 *1174:A 0
27 *316:559 *686:30 0
28 *316:579 *1172:A 0
29 *316:579 *1174:A 0
30 *360:509 *1172:A 0
31 *360:509 *1174:A 0
32 *653:38 *921:A1 0
33 *655:38 *1024:A 0
34 *655:38 *686:30 0
35 *656:25 *686:11 0
36 *656:25 *686:30 0
37 *656:33 *1024:A 0
38 *657:23 *921:A1 0
39 *659:16 *921:A1 0
40 *682:50 *921:A1 0
*RES
1 *1434:Q *686:8 17.4868 
2 *686:8 *686:11 4.9704 
3 *686:11 *1174:A 19.6839 
4 *686:11 *1172:A 14.3804 
5 *686:8 *686:30 7.20447 
6 *686:30 *1024:A 18.6304 
7 *686:30 *921:A1 28.3194 
*END

*D_NET *687 0.00700721
*CONN
*I *929:B2 I *D sky130_fd_sc_hd__a222oi_1
*I *1024:D_N I *D sky130_fd_sc_hd__nor4b_1
*I *1175:A I *D sky130_fd_sc_hd__nand2_1
*I *1178:A I *D sky130_fd_sc_hd__nand2_1
*I *1435:Q O *D sky130_fd_sc_hd__dfrtp_1
*CAP
1 *929:B2 0.000932771
2 *1024:D_N 2.55228e-05
3 *1175:A 0
4 *1178:A 0.000475121
5 *1435:Q 0.000105749
6 *687:40 0.00240219
7 *687:12 0.000995665
8 *687:8 0.00207019
9 *929:B2 *940:A1 0
10 *1178:A *1180:A 0
11 *1178:A *688:40 0
12 *908:B2 *929:B2 0
13 *917:B2 *929:B2 0
14 *926:A *929:B2 0
15 *929:A1 *929:B2 0
16 *929:C2 *929:B2 0
17 *938:A *929:B2 0
18 *1045:C *929:B2 0
19 *1171:A *687:8 0
20 *1171:A *687:12 0
21 *1171:A *687:40 0
22 *1176:A *687:12 0
23 *1178:B *1178:A 0
24 *1272:A1 *1178:A 0
25 *315:224 *687:8 0
26 *360:492 *1178:A 0
27 *360:492 *687:12 0
28 *578:13 *687:8 0
29 *603:842 *687:8 0
30 *655:38 *929:B2 0
31 *655:38 *1178:A 0
32 *655:38 *687:12 0
33 *655:38 *687:40 0
34 *656:25 *687:12 0
35 *685:33 *929:B2 0
36 *685:33 *687:40 0
*RES
1 *1435:Q *687:8 19.6118 
2 *687:8 *687:12 6.83711 
3 *687:12 *1178:A 22.806 
4 *687:12 *1175:A 13.8 
5 *687:8 *687:40 5.27653 
6 *687:40 *1024:D_N 17.7904 
7 *687:40 *929:B2 22.551 
*END

*D_NET *688 0.00983146
*CONN
*I *934:C2 I *D sky130_fd_sc_hd__a222oi_1
*I *1024:C I *D sky130_fd_sc_hd__nor4b_1
*I *1180:A I *D sky130_fd_sc_hd__nand2_1
*I *1177:A I *D sky130_fd_sc_hd__nand2_1
*I *1436:Q O *D sky130_fd_sc_hd__dfrtp_1
*CAP
1 *934:C2 0.00141067
2 *1024:C 9.50696e-05
3 *1180:A 0.000381761
4 *1177:A 0.000198505
5 *1436:Q 0.000462338
6 *688:40 0.00364979
7 *688:21 0.00274915
8 *688:8 0.000884177
9 *934:C2 uo_out[7] 0
10 *934:C2 *765:11 0
11 *1177:A *1468:CLK 0
12 *1180:A *1437:CLK 0
13 *1180:A *1467:CLK 0
14 *908:B2 *934:C2 0
15 *917:B2 *934:C2 0
16 *920:C2 *934:C2 0
17 *1178:A *1180:A 0
18 *1178:A *688:40 0
19 *1180:B *1180:A 0
20 *1255:A *934:C2 0
21 *1268:A *1180:A 0
22 *1272:A1 *1180:A 0
23 *315:115 *934:C2 0
24 *316:659 *688:21 0
25 *360:492 *1180:A 0
26 *579:12 *1180:A 0
27 *579:12 *688:8 0
28 *579:12 *688:21 0
29 *592:200 *688:8 0
30 *592:200 *688:21 0
31 *654:40 *688:40 0
32 *655:38 *1024:C 0
33 *661:30 *934:C2 0
34 *662:34 *934:C2 0
35 *686:30 *1024:C 0
*RES
1 *1436:Q *688:8 23.925 
2 *688:8 *1177:A 17.9429 
3 *688:8 *688:21 8.54393 
4 *688:21 *1180:A 22.5925 
5 *688:21 *688:40 5.30072 
6 *688:40 *1024:C 21.9626 
7 *688:40 *934:C2 26.4702 
*END

*D_NET *689 0.0071506
*CONN
*I *945:B2 I *D sky130_fd_sc_hd__a221oi_1
*I *1023:A I *D sky130_fd_sc_hd__nand4_1
*I *1184:A I *D sky130_fd_sc_hd__nand2_1
*I *1181:A I *D sky130_fd_sc_hd__nand2_1
*I *1437:Q O *D sky130_fd_sc_hd__dfrtp_1
*CAP
1 *945:B2 0.000610229
2 *1023:A 0
3 *1184:A 0.000156086
4 *1181:A 0.000493696
5 *1437:Q 0
6 *689:38 0.00232953
7 *689:17 0.00247138
8 *689:4 0.00108969
9 *945:B2 *948:C2 0
10 *1184:A *1511:CLK 0
11 *689:38 *907:A1 0
12 *689:38 *948:C2 0
13 *689:38 *690:31 0
14 *907:B2 *945:B2 0
15 *907:C1 *945:B2 0
16 *907:C2 *945:B2 0
17 *909:C *945:B2 0
18 *914:C2 *689:38 0
19 *921:A1 *689:38 0
20 *937:B2 *689:38 0
21 *945:A1 *945:B2 0
22 *1031:A *945:B2 0
23 *1181:B *1181:A 0
24 *1182:A *1181:A 0
25 *1445:RESET_B *945:B2 0
26 *277:16 *945:B2 0
27 *315:285 *1184:A 0
28 *316:574 *1184:A 0
29 *316:664 *1181:A 0
30 *345:11 *945:B2 0
31 *578:13 *1184:A 0
32 *603:907 *1181:A 0
33 *616:25 *945:B2 0
34 *653:38 *689:17 0
35 *653:38 *689:38 0
36 *654:19 *689:17 0
37 *654:40 *689:38 0
38 *656:25 *689:17 0
39 *683:29 *689:17 0
40 *686:11 *689:17 0
41 *686:11 *689:38 0
42 *686:30 *689:38 0
*RES
1 *1437:Q *689:4 9.3 
2 *689:4 *1181:A 19.6036 
3 *689:4 *689:17 11.3218 
4 *689:17 *1184:A 20.7546 
5 *689:17 *689:38 15.4139 
6 *689:38 *1023:A 9.3 
7 *689:38 *945:B2 31.5321 
*END

*D_NET *690 0.00519272
*CONN
*I *948:C2 I *D sky130_fd_sc_hd__a222oi_1
*I *1023:B I *D sky130_fd_sc_hd__nand4_1
*I *1187:A I *D sky130_fd_sc_hd__nand2_1
*I *1183:A I *D sky130_fd_sc_hd__nand2_1
*I *1438:Q O *D sky130_fd_sc_hd__dfrtp_1
*CAP
1 *948:C2 0.000743234
2 *1023:B 0
3 *1187:A 1.21715e-05
4 *1183:A 0
5 *1438:Q 8.25679e-05
6 *690:31 0.00199549
7 *690:16 0.00177056
8 *690:7 0.000588695
9 *948:C2 *907:A1 0
10 *690:31 *907:A1 0
11 *907:C2 *948:C2 0
12 *914:C2 *948:C2 0
13 *923:C2 *948:C2 0
14 *937:B2 *690:31 0
15 *945:B2 *948:C2 0
16 *948:A1 *948:C2 0
17 *950:B2 *948:C2 0
18 *1010:A *948:C2 0
19 *1012:A *948:C2 0
20 *1030:B *948:C2 0
21 *1185:B1 *690:7 0
22 *1445:RESET_B *948:C2 0
23 *316:559 *1187:A 0
24 *316:559 *690:16 0
25 *316:567 *690:7 0
26 *316:567 *690:16 0
27 *345:11 *948:C2 0
28 *593:11 *690:16 0
29 *603:861 *690:7 0
30 *603:861 *690:16 0
31 *655:38 *690:31 0
32 *686:30 *690:31 0
33 *689:38 *948:C2 0
34 *689:38 *690:31 0
*RES
1 *1438:Q *690:7 11.0857 
2 *690:7 *1183:A 9.3 
3 *690:7 *690:16 15.6875 
4 *690:16 *1187:A 14.0768 
5 *690:16 *690:31 16.3434 
6 *690:31 *1023:B 9.3 
7 *690:31 *948:C2 34.7732 
*END

*D_NET *691 0.00739269
*CONN
*I *1026:B I *D sky130_fd_sc_hd__nor2_1
*I *905:A1 I *D sky130_fd_sc_hd__a22oi_1
*I *1144:A I *D sky130_fd_sc_hd__nand2_1
*I *1141:A I *D sky130_fd_sc_hd__nand2_1
*I *1424:Q O *D sky130_fd_sc_hd__dfrtp_1
*CAP
1 *1026:B 0.000159193
2 *905:A1 0.000237512
3 *1144:A 0.000248936
4 *1141:A 0.000181821
5 *1424:Q 0
6 *691:36 0.00326559
7 *691:15 0.00311782
8 *691:4 0.000181821
9 *1026:B *915:B2 0
10 *691:36 *692:23 0
11 *909:A *905:A1 0
12 *942:A1 *1026:B 0
13 *949:A1 *691:36 0
14 *950:B2 *691:36 0
15 *1026:A *1026:B 0
16 *1143:A1 *1141:A 0
17 *1143:A2 *1144:A 0
18 *1143:B1 *1141:A 0
19 *1424:D *1141:A 0
20 *224:65 *905:A1 0
21 *236:40 *905:A1 0
22 *236:40 *691:36 0
23 *315:941 *691:36 0
24 *316:281 *1144:A 0
25 *603:673 *1144:A 0
26 *603:679 *1144:A 0
27 *647:21 *691:36 0
28 *679:34 *691:36 0
*RES
1 *1424:Q *691:4 9.3 
2 *691:4 *1141:A 13.1571 
3 *691:4 *691:15 4.5 
4 *691:15 *1144:A 19.3893 
5 *691:15 *691:36 15.8115 
6 *691:36 *905:A1 18.558 
7 *691:36 *1026:B 20.8261 
*END

*D_NET *692 0.00654565
*CONN
*I *1145:A I *D sky130_fd_sc_hd__nand2_1
*I *915:B2 I *D sky130_fd_sc_hd__a222oi_1
*I *1025:B I *D sky130_fd_sc_hd__nor4b_1
*I *1147:A I *D sky130_fd_sc_hd__nand2_1
*I *1425:Q O *D sky130_fd_sc_hd__dfrtp_1
*CAP
1 *1145:A 8.25679e-05
2 *915:B2 0.000434572
3 *1025:B 0
4 *1147:A 0
5 *1425:Q 0
6 *692:23 0.002875
7 *692:8 0.00275568
8 *692:4 0.000397825
9 *915:B2 *930:B2 0
10 *915:B2 *1025:C 0
11 *915:B2 *1025:D_N 0
12 *692:23 *1025:A 0
13 *692:23 *693:22 0
14 *692:23 *695:12 0
15 *692:23 *773:14 0
16 *692:23 *773:16 0
17 *692:23 *773:18 0
18 *915:C2 *915:B2 0
19 *915:C2 *692:23 0
20 *1026:B *915:B2 0
21 *1027:B *915:B2 0
22 *1027:C *915:B2 0
23 *1037:C *915:B2 0
24 *1112:B *692:23 0
25 *1148:B *1145:A 0
26 *1148:B *692:8 0
27 *1150:B *692:23 0
28 *1407:D *692:23 0
29 *1426:D *692:8 0
30 *315:539 *692:23 0
31 *315:653 *692:23 0
32 *315:941 *692:23 0
33 *316:281 *1145:A 0
34 *360:62 *692:23 0
35 *360:79 *692:23 0
36 *603:679 *692:8 0
37 *626:32 *915:B2 0
38 *626:32 *692:23 0
39 *627:8 *692:23 0
40 *634:36 *692:23 0
41 *648:11 *692:23 0
42 *648:18 *692:23 0
43 *650:21 *692:23 0
44 *651:29 *692:23 0
45 *691:36 *692:23 0
*RES
1 *1425:Q *692:4 9.3 
2 *692:4 *692:8 11.2857 
3 *692:8 *1147:A 13.8 
4 *692:8 *692:23 32.3709 
5 *692:23 *1025:B 9.3 
6 *692:23 *915:B2 27.7732 
7 *692:4 *1145:A 11.0857 
*END

*D_NET *693 0.00781017
*CONN
*I *1148:A I *D sky130_fd_sc_hd__nand2_1
*I *1150:A I *D sky130_fd_sc_hd__nand2_1
*I *922:A1 I *D sky130_fd_sc_hd__a222oi_1
*I *1025:A I *D sky130_fd_sc_hd__nor4b_1
*I *1426:Q O *D sky130_fd_sc_hd__dfrtp_1
*CAP
1 *1148:A 0.000154013
2 *1150:A 3.50807e-05
3 *922:A1 0.000870621
4 *1025:A 4.84894e-05
5 *1426:Q 0.000604854
6 *693:22 0.00299007
7 *693:11 0.00222711
8 *693:10 0.000879938
9 *1148:A *1425:CLK 0
10 *693:10 *1425:CLK 0
11 *693:10 *694:9 0
12 *693:10 *774:42 0
13 *898:A1 *922:A1 0
14 *899:B2 *922:A1 0
15 *906:A1 *922:A1 0
16 *910:B2 *922:A1 0
17 *922:B1 *922:A1 0
18 *1040:C *922:A1 0
19 *1064:A *693:22 0
20 *1148:B *1148:A 0
21 *1150:B *693:10 0
22 *1152:A *693:22 0
23 *1425:D *693:10 0
24 *227:19 *922:A1 0
25 *236:18 *922:A1 0
26 *315:643 *693:22 0
27 *315:653 *693:22 0
28 *316:225 *693:22 0
29 *603:407 *693:22 0
30 *603:413 *693:22 0
31 *626:32 *1025:A 0
32 *648:11 *693:22 0
33 *648:18 *693:22 0
34 *649:10 *693:22 0
35 *650:21 *922:A1 0
36 *650:21 *693:22 0
37 *692:23 *1025:A 0
38 *692:23 *693:22 0
*RES
1 *1426:Q *693:10 31.2286 
2 *693:10 *693:11 2.58929 
3 *693:11 *693:22 27.3969 
4 *693:22 *1025:A 21.2834 
5 *693:22 *922:A1 25.6934 
6 *693:11 *1150:A 10.0321 
7 *693:10 *1148:A 12.5768 
*END

*D_NET *694 0.00689126
*CONN
*I *1151:A I *D sky130_fd_sc_hd__nand2_1
*I *1154:A I *D sky130_fd_sc_hd__nand2_1
*I *1025:D_N I *D sky130_fd_sc_hd__nor4b_1
*I *930:B2 I *D sky130_fd_sc_hd__a222oi_1
*I *1427:Q O *D sky130_fd_sc_hd__dfrtp_1
*CAP
1 *1151:A 2.0535e-05
2 *1154:A 2.0535e-05
3 *1025:D_N 4.88776e-05
4 *930:B2 0.000925462
5 *1427:Q 0.000311508
6 *694:25 0.0025056
7 *694:17 0.00213925
8 *694:9 0.000919498
9 *930:B2 *936:A1 0
10 *930:B2 *1025:C 0
11 *694:17 *774:36 0
12 *694:25 *1393:CLK 0
13 *694:25 *773:65 0
14 *694:25 *774:17 0
15 *915:B2 *930:B2 0
16 *915:B2 *1025:D_N 0
17 *943:C2 *930:B2 0
18 *1027:B *930:B2 0
19 *1027:B *694:25 0
20 *1032:A *930:B2 0
21 *1033:A *930:B2 0
22 *1034:D *930:B2 0
23 *1037:C *930:B2 0
24 *1050:A1 *694:25 0
25 *1060:B *694:25 0
26 *1065:A1 *694:25 0
27 *1116:B1 *694:25 0
28 *1150:B *694:25 0
29 *1151:B *694:17 0
30 *1152:A *694:17 0
31 *1152:B *694:17 0
32 *1155:A2 *694:25 0
33 *1401:RESET_B *694:25 0
34 *315:553 *1154:A 0
35 *315:553 *694:25 0
36 *315:643 *694:25 0
37 *316:184 *694:25 0
38 *316:196 *694:25 0
39 *316:235 *694:17 0
40 *360:34 *694:25 0
41 *603:390 *694:17 0
42 *636:8 *694:25 0
43 *636:17 *694:25 0
44 *693:10 *694:9 0
*RES
1 *1427:Q *694:9 24.9964 
2 *694:9 *694:17 21.5536 
3 *694:17 *694:25 42.5089 
4 *694:25 *930:B2 38.1259 
5 *694:25 *1025:D_N 10.4161 
6 *694:17 *1154:A 9.72857 
7 *694:9 *1151:A 9.72857 
*END

*D_NET *695 0.00855541
*CONN
*I *1153:A I *D sky130_fd_sc_hd__nand2_1
*I *936:A1 I *D sky130_fd_sc_hd__a222oi_1
*I *1025:C I *D sky130_fd_sc_hd__nor4b_1
*I *1156:A I *D sky130_fd_sc_hd__nand2_1
*I *1428:Q O *D sky130_fd_sc_hd__dfrtp_1
*CAP
1 *1153:A 0.000134333
2 *936:A1 0.00102467
3 *1025:C 0.000701404
4 *1156:A 2.56688e-05
5 *1428:Q 0
6 *695:23 0.00240897
7 *695:12 0.0024173
8 *695:4 0.00184306
9 *1153:A *1428:CLK 0
10 *695:12 *1428:CLK 0
11 *908:B1 *936:A1 0
12 *909:A *936:A1 0
13 *909:B *936:A1 0
14 *909:D *936:A1 0
15 *910:C1 *936:A1 0
16 *915:B2 *1025:C 0
17 *915:C2 *1025:C 0
18 *919:A *936:A1 0
19 *930:B1 *936:A1 0
20 *930:B2 *936:A1 0
21 *930:B2 *1025:C 0
22 *931:C *936:A1 0
23 *936:A2 *936:A1 0
24 *936:B1 *936:A1 0
25 *942:A1 *936:A1 0
26 *943:A1 *936:A1 0
27 *943:C2 *936:A1 0
28 *943:C2 *1025:C 0
29 *1020:A *936:A1 0
30 *1020:A *695:23 0
31 *1032:A *1025:C 0
32 *1032:B *1025:C 0
33 *1037:C *1025:C 0
34 *1077:B1 *695:23 0
35 *1082:A *695:12 0
36 *1150:B *695:12 0
37 *1153:B *1153:A 0
38 *1155:A2 *695:12 0
39 *1158:A *695:12 0
40 *1402:RESET_B *695:23 0
41 *1403:RESET_B *1156:A 0
42 *1408:D *695:23 0
43 *222:30 *936:A1 0
44 *222:44 *936:A1 0
45 *224:70 *936:A1 0
46 *235:83 *936:A1 0
47 *236:49 *936:A1 0
48 *315:487 *695:23 0
49 *315:495 *1156:A 0
50 *315:502 *695:12 0
51 *315:502 *695:23 0
52 *315:539 *695:12 0
53 *603:390 *1153:A 0
54 *622:25 *936:A1 0
55 *623:40 *695:23 0
56 *625:21 *695:23 0
57 *627:27 *1025:C 0
58 *628:36 *695:23 0
59 *648:18 *695:23 0
60 *650:21 *695:12 0
61 *651:29 *1025:C 0
62 *692:23 *695:12 0
*RES
1 *1428:Q *695:4 9.3 
2 *695:4 *695:12 21.0405 
3 *695:12 *1156:A 14.3357 
4 *695:12 *695:23 15.5357 
5 *695:23 *1025:C 37.6214 
6 *695:23 *936:A1 46.1839 
7 *695:4 *1153:A 12.1036 
*END

*D_NET *696 0.00794238
*CONN
*I *1157:A I *D sky130_fd_sc_hd__nand2_1
*I *940:A1 I *D sky130_fd_sc_hd__a22oi_1
*I *1043:SLEEP I *D sky130_fd_sc_hd__lpflow_isobufsrc_1
*I *1159:A I *D sky130_fd_sc_hd__nand2_1
*I *1429:Q O *D sky130_fd_sc_hd__dfrtp_1
*CAP
1 *1157:A 0
2 *940:A1 0.0014637
3 *1043:SLEEP 8.55626e-05
4 *1159:A 0
5 *1429:Q 0.000348717
6 *696:30 0.00270957
7 *696:20 0.00207321
8 *696:10 0.00126162
9 *940:A1 *951:B2 0
10 *940:A1 *1044:A 0
11 *940:A1 *699:25 0
12 *696:10 *1405:CLK 0
13 *696:10 *1406:CLK 0
14 *696:10 *772:30 0
15 *696:20 *1404:CLK 0
16 *696:20 *1430:CLK 0
17 *696:30 *1378:CLK 0
18 *696:30 *1409:CLK 0
19 *696:30 *699:25 0
20 *696:30 *766:20 0
21 *696:30 *766:24 0
22 *696:30 *766:32 0
23 *696:30 *766:37 0
24 *900:C2 *696:30 0
25 *908:B2 *940:A1 0
26 *917:B2 *940:A1 0
27 *929:B2 *940:A1 0
28 *1044:D *1043:SLEEP 0
29 *1088:A *696:10 0
30 *1100:B *696:30 0
31 *1101:A1 *696:30 0
32 *1101:A2 *696:30 0
33 *1158:A *696:10 0
34 *1159:B *696:30 0
35 *1160:B *696:30 0
36 *1161:A *696:30 0
37 *1203:A1 *696:30 0
38 *1206:B *940:A1 0
39 *1410:D *696:30 0
40 *1411:D *696:30 0
41 *1429:RESET_B *696:10 0
42 *1445:D *940:A1 0
43 *1445:D *1043:SLEEP 0
44 *236:40 *940:A1 0
45 *316:119 *696:30 0
46 *316:132 *696:30 0
47 *603:189 *696:30 0
48 *614:8 *696:30 0
49 *615:6 *696:30 0
50 *615:17 *696:30 0
51 *624:38 *696:10 0
*RES
1 *1429:Q *696:10 21.3357 
2 *696:10 *696:20 15.0915 
3 *696:20 *1159:A 9.3 
4 *696:20 *696:30 30.5 
5 *696:30 *1043:SLEEP 15.5857 
6 *696:30 *940:A1 28.6533 
7 *696:10 *1157:A 13.8 
*END

*D_NET *697 0.00913552
*CONN
*I *951:B2 I *D sky130_fd_sc_hd__a222oi_1
*I *1044:A I *D sky130_fd_sc_hd__nand4_1
*I *1163:A I *D sky130_fd_sc_hd__nand2_1
*I *1160:A I *D sky130_fd_sc_hd__nand2_1
*I *1430:Q O *D sky130_fd_sc_hd__dfrtp_1
*CAP
1 *951:B2 0.00187566
2 *1044:A 0.000300533
3 *1163:A 0.000666501
4 *1160:A 0.000155339
5 *1430:Q 0.0005726
6 *697:43 0.00304734
7 *697:28 0.00166362
8 *697:17 0.000853919
9 *951:B2 *900:B2 0
10 *951:B2 *1833:A 0
11 *1044:A *900:B2 0
12 *1044:A *907:A1 0
13 *1163:A *1404:CLK 0
14 *1163:A *766:24 0
15 *1163:A *766:37 0
16 *898:A1 *951:B2 0
17 *900:C2 *951:B2 0
18 *908:C2 *951:B2 0
19 *915:C2 *951:B2 0
20 *917:B2 *697:43 0
21 *930:C2 *951:B2 0
22 *940:A1 *951:B2 0
23 *940:A1 *1044:A 0
24 *951:C1 *951:B2 0
25 *951:C2 *951:B2 0
26 *1023:D *1044:A 0
27 *1045:D *1044:A 0
28 *1102:A *697:17 0
29 *1104:A2 *697:17 0
30 *1164:B1 *1163:A 0
31 *1205:B *1044:A 0
32 *1206:B *1044:A 0
33 *1411:RESET_B *697:17 0
34 *1430:RESET_B *1160:A 0
35 *227:49 *951:B2 0
36 *227:53 *951:B2 0
37 *233:29 *951:B2 0
38 *236:40 *951:B2 0
39 *316:380 *1160:A 0
40 *316:380 *697:28 0
41 *359:31 *951:B2 0
42 *360:150 *1160:A 0
43 *360:150 *697:17 0
44 *603:207 *1160:A 0
45 *603:207 *697:28 0
*RES
1 *1430:Q *697:17 35.2643 
2 *697:17 *1160:A 17.2643 
3 *697:17 *697:28 5.66331 
4 *697:28 *1163:A 23.4053 
5 *697:28 *697:43 10.3826 
6 *697:43 *1044:A 22.3753 
7 *697:43 *951:B2 32.0019 
*END

*D_NET *698 0.00820064
*CONN
*I *1043:A I *D sky130_fd_sc_hd__lpflow_isobufsrc_1
*I *900:B2 I *D sky130_fd_sc_hd__a222oi_1
*I *1166:A I *D sky130_fd_sc_hd__nand2_1
*I *1162:A I *D sky130_fd_sc_hd__nand2_1
*I *1431:Q O *D sky130_fd_sc_hd__dfrtp_1
*CAP
1 *1043:A 9.43834e-06
2 *900:B2 0.00208478
3 *1166:A 0.000937893
4 *1162:A 0
5 *1431:Q 0.00013108
6 *698:36 0.00302193
7 *698:15 0.00187502
8 *698:8 0.000140498
9 *1166:A *1512:CLK 0
10 *1166:A *721:59 0
11 *698:8 *702:8 0
12 *698:36 *699:25 0
13 *698:36 *766:13 0
14 *698:36 *766:20 0
15 *900:A2 *900:B2 0
16 *900:B1 *900:B2 0
17 *900:C1 *900:B2 0
18 *900:C2 *900:B2 0
19 *903:A1 *900:B2 0
20 *905:B2 *900:B2 0
21 *908:C2 *900:B2 0
22 *909:A *900:B2 0
23 *917:B2 *900:B2 0
24 *930:C2 *900:B2 0
25 *951:B2 *900:B2 0
26 *1044:A *900:B2 0
27 *1162:B *698:36 0
28 *1163:B *698:8 0
29 *1163:B *698:36 0
30 *1164:A1 *698:8 0
31 *1164:B1 *698:8 0
32 *1203:A1 *698:36 0
33 *1203:A2 *698:36 0
34 *1431:RESET_B *698:8 0
35 *1444:D *698:36 0
36 *315:399 *1043:A 0
37 *315:399 *698:36 0
38 *316:110 *698:36 0
39 *316:119 *698:36 0
40 *578:13 *1166:A 0
41 *603:182 *698:36 0
42 *612:24 *900:B2 0
43 *614:8 *698:36 0
44 *685:33 *900:B2 0
*RES
1 *1431:Q *698:8 16.6929 
2 *698:8 *1162:A 13.8 
3 *698:8 *698:15 0.276786 
4 *698:15 *1166:A 25.792 
5 *698:15 *698:36 20.5577 
6 *698:36 *900:B2 39.0184 
7 *698:36 *1043:A 14.0768 
*END

*D_NET *699 0.00586414
*CONN
*I *1169:A I *D sky130_fd_sc_hd__nand2_1
*I *907:A1 I *D sky130_fd_sc_hd__a222oi_1
*I *1044:B I *D sky130_fd_sc_hd__nand4_1
*I *1165:A I *D sky130_fd_sc_hd__nand2_1
*I *1432:Q O *D sky130_fd_sc_hd__dfrtp_1
*CAP
1 *1169:A 4.84781e-05
2 *907:A1 0.000853677
3 *1044:B 0
4 *1165:A 3.48122e-05
5 *1432:Q 0.000114342
6 *699:25 0.00254587
7 *699:19 0.00192924
8 *699:8 0.000337724
9 *909:C *907:A1 0
10 *921:A1 *907:A1 0
11 *921:B2 *907:A1 0
12 *937:B2 *907:A1 0
13 *940:A1 *699:25 0
14 *948:C2 *907:A1 0
15 *1010:A *907:A1 0
16 *1010:B *907:A1 0
17 *1023:D *907:A1 0
18 *1044:A *907:A1 0
19 *1044:D *907:A1 0
20 *1044:D *699:25 0
21 *1167:A2 *1165:A 0
22 *1167:A2 *699:8 0
23 *1168:B *699:19 0
24 *1171:A *699:25 0
25 *1206:B *907:A1 0
26 *1206:B *699:25 0
27 *1445:D *699:25 0
28 *315:399 *699:25 0
29 *360:466 *699:25 0
30 *360:472 *699:25 0
31 *578:13 *1169:A 0
32 *578:13 *699:8 0
33 *578:13 *699:19 0
34 *612:24 *699:25 0
35 *614:8 *699:25 0
36 *616:25 *907:A1 0
37 *685:33 *699:25 0
38 *689:38 *907:A1 0
39 *690:31 *907:A1 0
40 *696:30 *699:25 0
41 *698:36 *699:25 0
*RES
1 *1432:Q *699:8 16.4339 
2 *699:8 *1165:A 14.6125 
3 *699:8 *699:19 4.375 
4 *699:19 *699:25 18.795 
5 *699:25 *1044:B 13.8 
6 *699:25 *907:A1 29.8041 
7 *699:19 *1169:A 14.9161 
*END

*D_NET *700 0.00166464
*CONN
*I *1369:B1 I *D sky130_fd_sc_hd__a21o_1
*I *831:A I *D sky130_fd_sc_hd__and2_0
*I *1005:B I *D sky130_fd_sc_hd__nor3b_1
*I *1508:Q O *D sky130_fd_sc_hd__dfrtp_1
*CAP
1 *1369:B1 0.000399894
2 *831:A 2.56688e-05
3 *1005:B 0.000361139
4 *1508:Q 0
5 *700:6 0.000432427
6 *700:5 0.000445513
7 *831:A *831:B 0
8 *1005:B *1330:A 0
9 *1369:B1 *701:6 0
10 *1369:B1 *745:9 0
11 *1369:B1 *746:23 0
12 *700:6 *1330:A 0
13 *700:6 *701:6 0
14 *700:6 *745:9 0
15 *1327:A *1005:B 0
16 *1331:A *1005:B 0
17 *1369:A2 *1369:B1 0
18 *316:11 *1369:B1 0
19 *316:16 *1005:B 0
20 *316:20 *1005:B 0
21 *588:14 *1005:B 0
22 *588:14 *700:6 0
23 *676:17 *1005:B 0
*RES
1 *1508:Q *700:5 13.8 
2 *700:5 *700:6 1.03571 
3 *700:6 *1005:B 21.8536 
4 *700:6 *831:A 14.3357 
5 *700:5 *1369:B1 22.5321 
*END

*D_NET *701 0.000690374
*CONN
*I *831:B I *D sky130_fd_sc_hd__and2_0
*I *1330:A I *D sky130_fd_sc_hd__nand2_1
*I *1487:Q O *D sky130_fd_sc_hd__dfrtp_1
*CAP
1 *831:B 0.000104386
2 *1330:A 0.000171193
3 *1487:Q 6.96077e-05
4 *701:6 0.000345187
5 *831:A *831:B 0
6 *1005:B *1330:A 0
7 *1331:B *1330:A 0
8 *1332:A2 *1330:A 0
9 *1369:A2 *1330:A 0
10 *1369:A2 *701:6 0
11 *1369:B1 *701:6 0
12 *316:16 *1330:A 0
13 *700:6 *1330:A 0
14 *700:6 *701:6 0
*RES
1 *1487:Q *701:6 15.4429 
2 *701:6 *1330:A 17.6036 
3 *701:6 *831:B 15.9786 
*END

*D_NET *702 0.00056743
*CONN
*I *833:B I *D sky130_fd_sc_hd__xnor2_1
*I *832:B I *D sky130_fd_sc_hd__xor2_1
*I *1512:Q O *D sky130_fd_sc_hd__dfrtp_1
*CAP
1 *833:B 0
2 *832:B 0.000104386
3 *1512:Q 0.000179328
4 *702:8 0.000283715
5 *832:B *721:60 0
6 *1164:A1 *702:8 0
7 *1164:B1 *702:8 0
8 *1431:D *702:8 0
9 *182:7 *832:B 0
10 *698:8 *702:8 0
*RES
1 *1512:Q *702:8 22.3714 
2 *702:8 *832:B 11.4786 
3 *702:8 *833:B 9.3 
*END

*D_NET *703 0.00324422
*CONN
*I *1365:A1 I *D sky130_fd_sc_hd__a32o_1
*I *828:A I *D sky130_fd_sc_hd__nand2_1
*I *804:B I *D sky130_fd_sc_hd__and3_1
*I *1336:B2 I *D sky130_fd_sc_hd__o22a_1
*I *1501:Q O *D sky130_fd_sc_hd__dfstp_2
*CAP
1 *1365:A1 0.000186064
2 *828:A 0
3 *804:B 0.000450728
4 *1336:B2 0.000179681
5 *1501:Q 0.000555853
6 *703:37 0.000198216
7 *703:14 0.000868039
8 *703:9 0.000805634
9 *804:B *803:A 0
10 *703:9 *801:A 0
11 *703:14 *801:A 0
12 *1336:A1 *1336:B2 0
13 *1340:B *1336:B2 0
14 *1365:A2 *1365:A1 0
15 *1365:A3 *804:B 0
16 *1365:A3 *1365:A1 0
17 *1367:A *804:B 0
18 *1368:A2 *804:B 0
19 *1500:D *1365:A1 0
20 *138:19 *703:9 0
21 *138:19 *703:14 0
22 *159:23 *703:14 0
23 *575:11 *804:B 0
*RES
1 *1501:Q *703:9 19.4796 
2 *703:9 *703:14 5.2931 
3 *703:14 *1336:B2 17.55 
4 *703:14 *804:B 23.5857 
5 *703:9 *703:37 3.68679 
6 *703:37 *828:A 13.8 
7 *703:37 *1365:A1 18.3179 
*END

*D_NET *704 0.00460194
*CONN
*I *809:A2 I *D sky130_fd_sc_hd__a31oi_1
*I *820:A2 I *D sky130_fd_sc_hd__a32o_1
*I *1335:A I *D sky130_fd_sc_hd__or3_1
*I *829:A I *D sky130_fd_sc_hd__nor2_1
*I *781:A I *D sky130_fd_sc_hd__clkinv_1
*I *1334:A1 I *D sky130_fd_sc_hd__o21ai_0
*I *1502:Q O *D sky130_fd_sc_hd__dfrtp_1
*CAP
1 *809:A2 0.000213314
2 *820:A2 0.000415841
3 *1335:A 0
4 *829:A 0.000196387
5 *781:A 0
6 *1334:A1 1.21519e-05
7 *1502:Q 0
8 *704:34 0.000695654
9 *704:24 0.000628022
10 *704:11 0.000859753
11 *704:6 0.00125109
12 *704:5 0.00032972
13 *809:A2 *808:A 0
14 *809:A2 *820:A3 0
15 *820:A2 *814:A 0
16 *820:A2 *820:A3 0
17 *829:A *830:A1 0
18 *704:6 *820:A3 0
19 *704:6 *769:59 0
20 *704:11 *801:A 0
21 *704:24 *801:A 0
22 *704:34 *803:A 0
23 *704:34 *1335:B 0
24 *704:34 *706:21 0
25 *704:34 *752:75 0
26 *704:34 *752:83 0
27 *810:B1 *809:A2 0
28 *810:B1 *704:6 0
29 *810:B1 *704:11 0
30 *820:A1 *820:A2 0
31 *828:B *829:A 0
32 *830:A2 *829:A 0
33 *1333:A2 *704:11 0
34 *1333:B1 *820:A2 0
35 *1338:A *704:11 0
36 *1364:A *704:34 0
37 *1364:B *704:34 0
38 *1502:RESET_B *809:A2 0
39 *1503:D *704:6 0
40 *1503:D *704:11 0
41 *158:20 *704:11 0
42 *160:10 *704:11 0
43 *163:13 *820:A2 0
44 *164:5 *809:A2 0
45 *168:9 *820:A2 0
46 *555:36 *704:34 0
47 *577:12 *704:11 0
48 *577:12 *704:24 0
*RES
1 *1502:Q *704:5 13.8 
2 *704:5 *704:6 2.70536 
3 *704:6 *704:11 9.17066 
4 *704:11 *1334:A1 17.4868 
5 *704:11 *704:24 4.39769 
6 *704:24 *704:34 24.2857 
7 *704:34 *781:A 9.3 
8 *704:34 *829:A 22.5321 
9 *704:24 *1335:A 13.8 
10 *704:6 *820:A2 23.4719 
11 *704:5 *809:A2 18.4429 
*END

*D_NET *705 0.0040983
*CONN
*I *1368:A1 I *D sky130_fd_sc_hd__a22o_1
*I *1335:C I *D sky130_fd_sc_hd__or3_1
*I *808:A I *D sky130_fd_sc_hd__and2_0
*I *805:A2 I *D sky130_fd_sc_hd__a21oi_1
*I *815:B I *D sky130_fd_sc_hd__nand2b_1
*I *814:A I *D sky130_fd_sc_hd__lpflow_isobufsrc_1
*I *1503:Q O *D sky130_fd_sc_hd__dfrtp_1
*CAP
1 *1368:A1 0
2 *1335:C 0.000331254
3 *808:A 0.000121264
4 *805:A2 0.000139176
5 *815:B 0.000211375
6 *814:A 0.000212652
7 *1503:Q 0
8 *705:53 0.000823433
9 *705:32 0.000284036
10 *705:7 0.000781251
11 *705:5 0.00054125
12 *705:4 0.000652608
13 *808:A *820:A3 0
14 *814:A *820:A3 0
15 *815:B *1502:CLK 0
16 *1335:C *1335:B 0
17 *1335:C *752:47 0
18 *705:7 *820:A3 0
19 *705:7 *1502:CLK 0
20 *705:53 *1506:CLK 0
21 *705:53 *746:44 0
22 *705:53 *752:47 0
23 *809:A2 *808:A 0
24 *810:B1 *805:A2 0
25 *810:B1 *808:A 0
26 *814:SLEEP *814:A 0
27 *815:A_N *815:B 0
28 *820:A2 *814:A 0
29 *820:B2 *814:A 0
30 *1333:A2 *705:5 0
31 *1333:A2 *705:7 0
32 *1333:A2 *705:53 0
33 *1365:A3 *1335:C 0
34 *1367:A *1335:C 0
35 *1368:A2 *1335:C 0
36 *1368:A2 *705:53 0
37 *1368:B1 *1335:C 0
38 *1368:B2 *705:53 0
39 *1502:D *814:A 0
40 *1502:D *815:B 0
41 *1502:RESET_B *805:A2 0
42 *1502:RESET_B *808:A 0
43 *1502:RESET_B *705:5 0
44 *1502:RESET_B *705:32 0
45 *168:9 *814:A 0
46 *169:8 *814:A 0
47 *169:8 *815:B 0
48 *169:13 *814:A 0
49 *551:8 *805:A2 0
50 *551:8 *705:5 0
51 *551:8 *705:53 0
*RES
1 *1503:Q *705:4 9.3 
2 *705:4 *705:5 3.41071 
3 *705:5 *705:7 7.51786 
4 *705:7 *814:A 22.7643 
5 *705:7 *815:B 23.0411 
6 *705:5 *705:32 5.03571 
7 *705:32 *805:A2 16.9607 
8 *705:32 *808:A 16.4964 
9 *705:4 *705:53 15 
10 *705:53 *1335:C 21.2286 
11 *705:53 *1368:A1 13.8 
*END

*D_NET *706 0.00254721
*CONN
*I *811:A1 I *D sky130_fd_sc_hd__a21o_1
*I *1335:B I *D sky130_fd_sc_hd__or3_1
*I *1334:A2 I *D sky130_fd_sc_hd__o21ai_0
*I *829:B I *D sky130_fd_sc_hd__nor2_1
*I *1504:Q O *D sky130_fd_sc_hd__dfrtp_1
*CAP
1 *811:A1 8.57316e-05
2 *1335:B 0.000128479
3 *1334:A2 0.000190079
4 *829:B 0
5 *1504:Q 0.000219468
6 *706:21 0.000691825
7 *706:13 0.000649848
8 *706:5 0.000581781
9 *811:A1 *752:98 0
10 *1334:A2 *752:16 0
11 *1334:A2 *752:75 0
12 *1335:B *1506:CLK 0
13 *706:13 *771:40 0
14 *706:13 *771:45 0
15 *706:21 *803:A 0
16 *706:21 *752:75 0
17 *1335:C *1335:B 0
18 *1364:B *706:21 0
19 *159:10 *706:21 0
20 *555:36 *1334:A2 0
21 *592:140 *811:A1 0
22 *704:34 *1335:B 0
23 *704:34 *706:21 0
*RES
1 *1504:Q *706:5 13.9429 
2 *706:5 *706:13 5.92857 
3 *706:13 *829:B 9.3 
4 *706:13 *706:21 7.94643 
5 *706:21 *1334:A2 22.425 
6 *706:21 *1335:B 21.1571 
7 *706:5 *811:A1 20.2464 
*END

*D_NET *707 0.00135918
*CONN
*I *806:B I *D sky130_fd_sc_hd__nand2_1
*I *1365:B2 I *D sky130_fd_sc_hd__a32o_1
*I *1500:Q O *D sky130_fd_sc_hd__dfrtp_1
*CAP
1 *806:B 9.34771e-05
2 *1365:B2 0.000586111
3 *1500:Q 0
4 *707:4 0.000679588
5 *1365:B2 *1500:CLK 0
6 *1365:B2 *751:17 0
7 *1365:B2 *771:72 0
8 *807:C *1365:B2 0
*RES
1 *1500:Q *707:4 9.3 
2 *707:4 *1365:B2 30.8357 
3 *707:4 *806:B 11.2821 
*END

*D_NET *708 0.000470854
*CONN
*I *806:A I *D sky130_fd_sc_hd__nand2_1
*I *1505:Q O *D sky130_fd_sc_hd__dfrtp_1
*CAP
1 *806:A 0.000235427
2 *1505:Q 0.000235427
3 *806:A *1390:CLK 0
4 *592:102 *806:A 0
*RES
1 *1505:Q *806:A 32.6714 
*END

*D_NET *709 0.00170954
*CONN
*I *854:A1 I *D sky130_fd_sc_hd__a22oi_1
*I *847:A1 I *D sky130_fd_sc_hd__a222oi_1
*I *1371:Q O *D sky130_fd_sc_hd__dfstp_2
*CAP
1 *854:A1 1.54013e-05
2 *847:A1 0.00014674
3 *1371:Q 0.000692629
4 *709:7 0.00085477
5 *847:A1 *854:B2 0
6 *709:7 *1371:CLK 0
7 *848:A *709:7 0
8 *848:B *847:A1 0
9 *848:B *709:7 0
10 *854:A2 *854:A1 0
11 *854:A2 *709:7 0
12 *1371:D *709:7 0
*RES
1 *1371:Q *709:7 23.8179 
2 *709:7 *847:A1 12.5946 
3 *709:7 *854:A1 9.72857 
*END

*D_NET *710 0.00309848
*CONN
*I *852:A I *D sky130_fd_sc_hd__nand2_1
*I *845:A I *D sky130_fd_sc_hd__nand4_1
*I *868:A I *D sky130_fd_sc_hd__nand2_1
*I *1372:Q O *D sky130_fd_sc_hd__dfrtp_1
*CAP
1 *852:A 0
2 *845:A 0.000229764
3 *868:A 0.000507733
4 *1372:Q 2.56688e-05
5 *710:29 0.00101584
6 *710:7 0.00131948
7 *845:A *1512:CLK 0
8 *845:A *764:17 0
9 *868:A *847:B2 0
10 *868:A *764:64 0
11 *710:29 *847:B2 0
12 *710:29 *764:12 0
13 *710:29 *764:17 0
14 *855:B *868:A 0
15 *855:B *710:29 0
16 *1373:D *710:7 0
17 *1374:RESET_B *868:A 0
18 *1374:RESET_B *710:29 0
19 *189:16 *868:A 0
20 *200:14 *845:A 0
21 *200:14 *868:A 0
22 *200:14 *710:29 0
23 *592:254 *710:29 0
24 *592:262 *845:A 0
25 *592:262 *710:29 0
*RES
1 *1372:Q *710:7 14.3357 
2 *710:7 *868:A 24.6434 
3 *710:7 *710:29 14.9901 
4 *710:29 *845:A 22.1727 
5 *710:29 *852:A 13.8 
*END

*D_NET *711 0.00148672
*CONN
*I *854:B2 I *D sky130_fd_sc_hd__a22oi_1
*I *847:B2 I *D sky130_fd_sc_hd__a222oi_1
*I *851:A I *D sky130_fd_sc_hd__nand3_1
*I *1373:Q O *D sky130_fd_sc_hd__dfrtp_1
*CAP
1 *854:B2 2.56688e-05
2 *847:B2 0.000163004
3 *851:A 0.00012609
4 *1373:Q 0.000419176
5 *711:12 0.000298513
6 *711:10 0.000454263
7 *711:10 *764:57 0
8 *847:A1 *854:B2 0
9 *848:B *854:B2 0
10 *851:B *851:A 0
11 *854:B1 *711:10 0
12 *855:B *847:B2 0
13 *855:B *711:10 0
14 *868:A *847:B2 0
15 *1373:D *711:10 0
16 *197:11 *851:A 0
17 *200:14 *847:B2 0
18 *592:222 *711:10 0
19 *710:29 *847:B2 0
*RES
1 *1373:Q *711:10 22.9786 
2 *711:10 *711:12 0.276786 
3 *711:12 *851:A 16.7196 
4 *711:12 *847:B2 21.7646 
5 *711:10 *854:B2 14.3357 
*END

*D_NET *712 0.00228937
*CONN
*I *878:A I *D sky130_fd_sc_hd__nand2_1
*I *847:C2 I *D sky130_fd_sc_hd__a222oi_1
*I *867:A I *D sky130_fd_sc_hd__nand3_1
*I *1374:Q O *D sky130_fd_sc_hd__dfrtp_1
*CAP
1 *878:A 0.000536866
2 *847:C2 0.000135085
3 *867:A 0.000389524
4 *1374:Q 0
5 *712:5 0.000607819
6 *712:4 0.000620075
7 *847:A2 *847:C2 0
8 *847:A2 *878:A 0
9 *847:B1 *847:C2 0
10 *847:C1 *847:C2 0
11 *851:B *878:A 0
12 *851:C *878:A 0
13 *852:B *878:A 0
14 *877:C *867:A 0
15 *878:B *878:A 0
16 *1374:D *867:A 0
17 *181:40 *878:A 0
18 *188:15 *878:A 0
19 *188:19 *878:A 0
20 *197:11 *878:A 0
21 *199:14 *867:A 0
22 *199:14 *712:5 0
*RES
1 *1374:Q *712:4 9.3 
2 *712:4 *712:5 1.76786 
3 *712:5 *867:A 17.4607 
4 *712:5 *847:C2 21.4161 
5 *712:4 *878:A 35.2046 
*END

*D_NET *713 0.00277789
*CONN
*I *958:A I *D sky130_fd_sc_hd__nand3_1
*I *959:B I *D sky130_fd_sc_hd__xnor2_1
*I *954:B I *D sky130_fd_sc_hd__and3_1
*I *841:A2 I *D sky130_fd_sc_hd__a21oi_1
*I *842:B I *D sky130_fd_sc_hd__or4_1
*I *836:B I *D sky130_fd_sc_hd__nor2_1
*I *1375:Q O *D sky130_fd_sc_hd__dfrtp_1
*CAP
1 *958:A 0
2 *959:B 2.56688e-05
3 *954:B 0.000136634
4 *841:A2 0
5 *842:B 0.000226724
6 *836:B 0.000103596
7 *1375:Q 0.000451309
8 *713:46 0.000271778
9 *713:25 0.000355988
10 *713:21 0.000209694
11 *713:16 0.000419345
12 *713:13 0.000577153
13 *836:B *837:B1_N 0
14 *836:B *841:A1 0
15 *836:B *715:20 0
16 *836:B *715:22 0
17 *842:B *842:A 0
18 *842:B *715:20 0
19 *959:B *714:28 0
20 *713:13 *842:A 0
21 *713:21 *841:A1 0
22 *713:25 *841:A1 0
23 *713:46 *841:A1 0
24 *713:46 *714:26 0
25 *958:C *713:13 0
26 *960:A1 *713:13 0
27 *963:B *954:B 0
28 *963:B *959:B 0
29 *964:A1 *836:B 0
30 *964:A1 *842:B 0
31 *964:A1 *713:16 0
32 *964:A1 *713:21 0
33 *964:A2 *713:46 0
34 *964:B1 *713:16 0
35 *964:B1 *713:46 0
36 *1376:D *713:16 0
37 *1378:D *713:13 0
38 *1378:RESET_B *713:13 0
39 *181:19 *713:21 0
40 *285:7 *954:B 0
41 *288:34 *842:B 0
42 *288:53 *713:16 0
*RES
1 *1375:Q *713:13 28.0857 
2 *713:13 *713:16 7.35714 
3 *713:16 *713:21 8.44643 
4 *713:21 *713:25 5.03571 
5 *713:25 *836:B 16.05 
6 *713:25 *842:B 18.7464 
7 *713:21 *841:A2 9.3 
8 *713:16 *713:46 2.55357 
9 *713:46 *954:B 16.7107 
10 *713:46 *959:B 14.3357 
11 *713:13 *958:A 9.3 
*END

*D_NET *714 0.00271201
*CONN
*I *959:A I *D sky130_fd_sc_hd__xnor2_1
*I *841:A1 I *D sky130_fd_sc_hd__a21oi_1
*I *954:A I *D sky130_fd_sc_hd__and3_1
*I *836:A I *D sky130_fd_sc_hd__nor2_1
*I *842:A I *D sky130_fd_sc_hd__or4_1
*I *1376:Q O *D sky130_fd_sc_hd__dfrtp_1
*CAP
1 *959:A 0
2 *841:A1 0.000196387
3 *954:A 2.0535e-05
4 *836:A 2.56688e-05
5 *842:A 0.000430018
6 *1376:Q 0.000271588
7 *714:30 0.000108237
8 *714:28 0.000379491
9 *714:26 0.000349776
10 *714:8 0.000930312
11 *836:A *954:C 0
12 *842:A *842:C 0
13 *842:A *715:20 0
14 *714:30 *954:C 0
15 *836:B *841:A1 0
16 *842:B *842:A 0
17 *958:B *842:A 0
18 *958:C *842:A 0
19 *959:B *714:28 0
20 *960:A1 *842:A 0
21 *960:A2 *714:8 0
22 *960:A2 *714:26 0
23 *963:B *714:26 0
24 *963:B *714:28 0
25 *964:A1 *841:A1 0
26 *964:A2 *714:26 0
27 *964:B1 *714:8 0
28 *964:B1 *714:26 0
29 *1375:D *842:A 0
30 *1376:D *842:A 0
31 *1378:D *714:8 0
32 *1378:RESET_B *714:8 0
33 *181:6 *714:8 0
34 *181:111 *714:8 0
35 *191:11 *842:A 0
36 *285:7 *836:A 0
37 *285:7 *714:28 0
38 *285:7 *714:30 0
39 *288:50 *842:A 0
40 *713:13 *842:A 0
41 *713:21 *841:A1 0
42 *713:25 *841:A1 0
43 *713:46 *841:A1 0
44 *713:46 *714:26 0
*RES
1 *1376:Q *714:8 19.5679 
2 *714:8 *842:A 22.8179 
3 *714:8 *714:26 9.71429 
4 *714:26 *714:28 2.58929 
5 *714:28 *714:30 1.35714 
6 *714:30 *836:A 9.83571 
7 *714:30 *954:A 9.72857 
8 *714:28 *841:A1 22.5321 
9 *714:26 *959:A 9.3 
*END

*D_NET *715 0.00214886
*CONN
*I *841:B1 I *D sky130_fd_sc_hd__a21oi_1
*I *954:C I *D sky130_fd_sc_hd__and3_1
*I *837:B1_N I *D sky130_fd_sc_hd__a21boi_0
*I *842:C I *D sky130_fd_sc_hd__or4_1
*I *1377:Q O *D sky130_fd_sc_hd__dfrtp_1
*CAP
1 *841:B1 0
2 *954:C 0.000150162
3 *837:B1_N 0.000242074
4 *842:C 4.53482e-05
5 *1377:Q 0.000375803
6 *715:22 0.000448473
7 *715:20 0.000261041
8 *715:10 0.000625955
9 *715:10 *1376:CLK 0
10 *715:20 *717:8 0
11 *836:A *954:C 0
12 *836:B *837:B1_N 0
13 *836:B *715:20 0
14 *836:B *715:22 0
15 *837:A2 *954:C 0
16 *839:A1 *837:B1_N 0
17 *842:A *842:C 0
18 *842:A *715:20 0
19 *842:B *715:20 0
20 *961:SLEEP *837:B1_N 0
21 *961:SLEEP *715:22 0
22 *962:A1 *715:10 0
23 *962:A2 *715:10 0
24 *962:A2 *715:20 0
25 *1375:RESET_B *715:10 0
26 *191:11 *842:C 0
27 *191:11 *715:10 0
28 *285:7 *837:B1_N 0
29 *285:7 *954:C 0
30 *285:23 *837:B1_N 0
31 *288:34 *842:C 0
32 *288:34 *715:10 0
33 *288:34 *715:20 0
34 *288:53 *715:20 0
35 *592:275 *715:10 0
36 *714:30 *954:C 0
*RES
1 *1377:Q *715:10 26.4964 
2 *715:10 *842:C 10.2464 
3 *715:10 *715:20 9.125 
4 *715:20 *715:22 1.33929 
5 *715:22 *837:B1_N 18.9607 
6 *715:22 *954:C 16.8714 
7 *715:20 *841:B1 13.8 
*END

*D_NET *716 0.00408262
*CONN
*I *963:A I *D sky130_fd_sc_hd__xnor2_1
*I *965:A1 I *D sky130_fd_sc_hd__a21o_1
*I *843:A1 I *D sky130_fd_sc_hd__a21oi_1
*I *838:D I *D sky130_fd_sc_hd__or4_1
*I *955:B I *D sky130_fd_sc_hd__nand3_1
*I *1378:Q O *D sky130_fd_sc_hd__dfrtp_1
*CAP
1 *963:A 1.21715e-05
2 *965:A1 1.21715e-05
3 *843:A1 0.000267571
4 *838:D 2.56688e-05
5 *955:B 1.07853e-05
6 *1378:Q 0.000750269
7 *716:25 0.000394496
8 *716:15 0.000244327
9 *716:11 0.000873588
10 *716:9 0.00149157
11 *716:9 *1430:CLK 0
12 *716:25 *717:33 0
13 *842:D *843:A1 0
14 *967:A2 *843:A1 0
15 *1379:D *843:A1 0
16 *184:11 *843:A1 0
17 *188:15 *716:15 0
18 *192:9 *843:A1 0
19 *288:34 *843:A1 0
*RES
1 *1378:Q *716:9 25.2627 
2 *716:9 *716:11 2.6414 
3 *716:11 *716:15 3.8894 
4 *716:15 *955:B 14.0768 
5 *716:15 *716:25 2.33036 
6 *716:25 *838:D 14.3357 
7 *716:25 *843:A1 19.7464 
8 *716:11 *965:A1 17.4868 
9 *716:9 *963:A 17.4868 
*END

*D_NET *717 0.00183359
*CONN
*I *965:B1 I *D sky130_fd_sc_hd__a21o_1
*I *955:A I *D sky130_fd_sc_hd__nand3_1
*I *835:D I *D sky130_fd_sc_hd__or4_1
*I *837:A1 I *D sky130_fd_sc_hd__a21boi_0
*I *1379:Q O *D sky130_fd_sc_hd__dfrtp_1
*CAP
1 *965:B1 0
2 *955:A 7.46534e-05
3 *835:D 0.000223318
4 *837:A1 0.000104338
5 *1379:Q 0.000262017
6 *717:33 0.000147014
7 *717:20 0.000475788
8 *717:8 0.000546464
9 *835:D *838:A 0
10 *835:D *720:46 0
11 *839:A1 *837:A1 0
12 *839:A1 *717:8 0
13 *839:A1 *717:20 0
14 *839:A1 *717:33 0
15 *839:B1 *835:D 0
16 *839:B1 *717:20 0
17 *843:A2 *717:8 0
18 *843:A2 *717:20 0
19 *955:C *955:A 0
20 *961:SLEEP *837:A1 0
21 *961:SLEEP *717:8 0
22 *962:A2 *717:8 0
23 *966:A *955:A 0
24 *966:B *955:A 0
25 *1377:D *717:8 0
26 *181:19 *717:8 0
27 *191:11 *717:8 0
28 *285:23 *837:A1 0
29 *286:7 *955:A 0
30 *715:20 *717:8 0
31 *716:25 *717:33 0
*RES
1 *1379:Q *717:8 19.7286 
2 *717:8 *837:A1 16.0857 
3 *717:8 *717:20 8.32143 
4 *717:20 *835:D 13.9607 
5 *717:20 *717:33 10.6429 
6 *717:33 *955:A 11.175 
7 *717:33 *965:B1 9.3 
*END

*D_NET *718 0.00170303
*CONN
*I *838:C I *D sky130_fd_sc_hd__or4_1
*I *835:C I *D sky130_fd_sc_hd__or4_1
*I *956:A I *D sky130_fd_sc_hd__lpflow_isobufsrc_1
*I *968:A I *D sky130_fd_sc_hd__xor2_1
*I *1380:Q O *D sky130_fd_sc_hd__dfrtp_1
*CAP
1 *838:C 0.000124066
2 *835:C 0
3 *956:A 0
4 *968:A 0.000124921
5 *1380:Q 0.000221924
6 *718:26 0.000405567
7 *718:12 0.000224024
8 *718:8 0.000602527
9 *838:C *838:A 0
10 *838:C *838:B 0
11 *838:C *719:55 0
12 *838:C *720:46 0
13 *718:26 *719:55 0
14 *718:26 *720:46 0
15 *956:SLEEP *968:A 0
16 *968:B *968:A 0
17 *969:A2 *718:8 0
18 *969:A2 *718:12 0
19 *181:61 *718:8 0
20 *184:5 *838:C 0
21 *188:15 *718:8 0
22 *287:10 *968:A 0
*RES
1 *1380:Q *718:8 18.8179 
2 *718:8 *718:12 6.75 
3 *718:12 *968:A 11.9071 
4 *718:12 *956:A 9.3 
5 *718:8 *718:26 10.375 
6 *718:26 *835:C 9.3 
7 *718:26 *838:C 11.8893 
*END

*D_NET *719 0.00306509
*CONN
*I *838:B I *D sky130_fd_sc_hd__or4_1
*I *835:B I *D sky130_fd_sc_hd__or4_1
*I *957:B I *D sky130_fd_sc_hd__nand3_1
*I *972:A1 I *D sky130_fd_sc_hd__a21oi_1
*I *971:A2 I *D sky130_fd_sc_hd__a31oi_1
*I *970:A1 I *D sky130_fd_sc_hd__o21ai_0
*I *834:B I *D sky130_fd_sc_hd__nor2_1
*I *1381:Q O *D sky130_fd_sc_hd__dfrtp_1
*CAP
1 *838:B 6.20329e-05
2 *835:B 0
3 *957:B 0
4 *972:A1 0
5 *971:A2 0
6 *970:A1 0.000139467
7 *834:B 0.000120249
8 *1381:Q 6.7838e-05
9 *719:55 0.0004676
10 *719:33 0.000139467
11 *719:20 0.000520664
12 *719:15 0.000679777
13 *719:12 0.000336975
14 *719:8 0.000531018
15 *834:B *720:20 0
16 *719:15 *720:40 0
17 *719:20 *972:B1 0
18 *719:20 *720:20 0
19 *719:20 *720:24 0
20 *719:55 *720:40 0
21 *719:55 *720:46 0
22 *838:C *838:B 0
23 *838:C *719:55 0
24 *957:C *719:15 0
25 *969:A2 *719:12 0
26 *970:A2 *970:A1 0
27 *970:B1 *834:B 0
28 *971:A1 *719:20 0
29 *971:B1 *970:A1 0
30 *973:A *719:12 0
31 *184:5 *838:B 0
32 *188:15 *719:8 0
33 *287:13 *719:15 0
34 *287:20 *719:20 0
35 *288:11 *719:8 0
36 *592:228 *719:8 0
37 *718:26 *719:55 0
*RES
1 *1381:Q *719:8 15.3714 
2 *719:8 *719:12 5.83929 
3 *719:12 *719:15 5.89286 
4 *719:15 *719:20 13.2143 
5 *719:20 *834:B 16.5143 
6 *719:20 *719:33 4.5 
7 *719:33 *970:A1 12.2107 
8 *719:33 *971:A2 9.3 
9 *719:15 *972:A1 9.3 
10 *719:12 *957:B 9.3 
11 *719:8 *719:55 12.8393 
12 *719:55 *835:B 9.3 
13 *719:55 *838:B 10.6571 
*END

*D_NET *720 0.00379207
*CONN
*I *838:A I *D sky130_fd_sc_hd__or4_1
*I *835:A I *D sky130_fd_sc_hd__or4_1
*I *957:A I *D sky130_fd_sc_hd__nand3_1
*I *972:B1 I *D sky130_fd_sc_hd__a21oi_1
*I *785:A I *D sky130_fd_sc_hd__clkinv_1
*I *834:A I *D sky130_fd_sc_hd__nor2_1
*I *1382:Q O *D sky130_fd_sc_hd__dfrtp_1
*CAP
1 *838:A 0.000121071
2 *835:A 0
3 *957:A 0
4 *972:B1 0.000124066
5 *785:A 0
6 *834:A 6.50276e-05
7 *1382:Q 0.000507944
8 *720:46 0.000497974
9 *720:40 0.000842364
10 *720:24 0.000156313
11 *720:20 0.000701026
12 *720:11 0.000776289
13 *720:11 *1380:CLK 0
14 *720:20 *1381:CLK 0
15 *834:B *720:20 0
16 *835:D *838:A 0
17 *835:D *720:46 0
18 *838:C *838:A 0
19 *838:C *720:46 0
20 *957:C *720:40 0
21 *971:A1 *720:20 0
22 *971:A1 *720:40 0
23 *973:B *720:20 0
24 *973:B *720:40 0
25 *1382:D *720:11 0
26 *1382:D *720:20 0
27 *1382:D *720:40 0
28 *1382:RESET_B *720:11 0
29 *184:5 *838:A 0
30 *287:13 *720:40 0
31 *287:20 *972:B1 0
32 *287:20 *720:40 0
33 *288:11 *720:40 0
34 *718:26 *720:46 0
35 *719:15 *720:40 0
36 *719:20 *972:B1 0
37 *719:20 *720:20 0
38 *719:20 *720:24 0
39 *719:55 *720:40 0
40 *719:55 *720:46 0
*RES
1 *1382:Q *720:11 29.1214 
2 *720:11 *834:A 10.6571 
3 *720:11 *720:20 9.17857 
4 *720:20 *720:24 5.23214 
5 *720:24 *785:A 9.3 
6 *720:24 *972:B1 11.8893 
7 *720:20 *720:40 14.2143 
8 *720:40 *957:A 9.3 
9 *720:40 *720:46 7.92857 
10 *720:46 *835:A 9.3 
11 *720:46 *838:A 11.8893 
*END

*D_NET *721 0.0156021
*CONN
*P ui_in[0] I
*I *786:A I *D sky130_fd_sc_hd__lpflow_isobufsrc_1
*I *999:A I *D sky130_fd_sc_hd__and2_0
*I *833:A I *D sky130_fd_sc_hd__xnor2_1
*I *832:A I *D sky130_fd_sc_hd__xor2_1
*I *1512:D I *D sky130_fd_sc_hd__dfrtp_1
*I *787:SLEEP I *D sky130_fd_sc_hd__lpflow_isobufsrc_1
*CAP
1 ui_in[0] 0.00287898
2 *786:A 0
3 *999:A 0
4 *833:A 0
5 *832:A 0
6 *1512:D 0.000444338
7 *787:SLEEP 0
8 *721:60 0.000585088
9 *721:59 0.00383985
10 *721:38 0.00417782
11 *721:26 0.000637869
12 *721:19 0.00303812
13 *1512:D *767:26 0
14 *1512:D *767:28 0
15 *721:19 uo_out[5] 0
16 *721:19 *880:A_N 0
17 *721:19 *723:11 0
18 *721:26 *750:32 0
19 *721:38 *1390:CLK 0
20 *721:59 uio_out[3] 0
21 *721:59 uio_out[6] 0
22 *721:59 uio_out[7] 0
23 *721:59 *880:A_N 0
24 *721:59 *746:29 0
25 *721:59 *748:28 0
26 *787:A *721:26 0
27 *832:B *721:60 0
28 *946:A *721:26 0
29 *958:B *1512:D 0
30 *1164:A1 *1512:D 0
31 *1164:A1 *721:59 0
32 *1166:A *721:59 0
33 *1384:D *721:19 0
34 *1390:D *721:38 0
35 *182:7 *721:60 0
36 *182:12 *1512:D 0
37 *182:12 *721:60 0
38 *592:13 *721:19 0
39 *594:9 *721:26 0
40 *679:34 *721:19 0
*RES
1 ui_in[0] *721:19 14.9892 
2 *721:19 *787:SLEEP 9.3 
3 *721:19 *721:26 3.42857 
4 *721:26 *721:38 10.2857 
5 *721:38 *721:59 38.3488 
6 *721:59 *721:60 3 
7 *721:60 *1512:D 27.9429 
8 *721:60 *832:A 9.3 
9 *721:59 *833:A 9.3 
10 *721:38 *999:A 9.3 
11 *721:26 *786:A 9.3 
*END

*D_NET *723 0.00657682
*CONN
*P ui_in[2] I
*I *864:A I *D sky130_fd_sc_hd__and2_0
*I *880:B I *D sky130_fd_sc_hd__nand2b_1
*I *977:A I *D sky130_fd_sc_hd__nor2_1
*I *821:A_N I *D sky130_fd_sc_hd__nand2b_1
*I *862:A I *D sky130_fd_sc_hd__nor3_1
*I *860:A I *D sky130_fd_sc_hd__nor2_1
*CAP
1 ui_in[2] 0.00047864
2 *864:A 0
3 *880:B 1.24066e-05
4 *977:A 0.000268549
5 *821:A_N 0
6 *862:A 2.41714e-05
7 *860:A 0.000175351
8 *723:53 0.0012526
9 *723:40 0.00213112
10 *723:17 0.000361547
11 *723:13 0.00135765
12 *723:11 0.000514781
13 *977:A *978:A1 0
14 *977:A *747:6 0
15 *723:11 *725:10 0
16 *723:53 uio_out[4] 0
17 *860:B *860:A 0
18 *862:C *860:A 0
19 *862:C *862:A 0
20 *863:A *860:A 0
21 *863:A *723:11 0
22 *863:A *723:17 0
23 *865:A3 *860:A 0
24 *977:B *977:A 0
25 *979:A2 *977:A 0
26 *979:A2 *723:53 0
27 *979:B1 *723:53 0
28 *1384:D *977:A 0
29 *1389:D *723:40 0
30 *173:6 *723:53 0
31 *173:55 *723:40 0
32 *205:10 *723:17 0
33 *207:11 *860:A 0
34 *210:21 *723:40 0
35 *210:44 *723:17 0
36 *278:11 *977:A 0
37 *299:8 *977:A 0
38 *588:10 *723:11 0
39 *588:10 *723:40 0
40 *592:13 *723:11 0
41 *592:57 *723:40 0
42 *592:80 *723:40 0
43 *592:80 *723:53 0
44 *721:19 *723:11 0
*RES
1 ui_in[2] *723:11 9.16129 
2 *723:11 *723:13 0.883929 
3 *723:13 *723:17 8.11607 
4 *723:17 *860:A 22.05 
5 *723:17 *862:A 9.83571 
6 *723:13 *723:40 12.0182 
7 *723:40 *821:A_N 13.8 
8 *723:40 *723:53 29.6607 
9 *723:53 *977:A 19.8536 
10 *723:53 *880:B 14.0589 
11 *723:11 *864:A 13.8 
*END

*D_NET *725 0.00674635
*CONN
*P ui_in[4] I
*I *886:A_N I *D sky130_fd_sc_hd__nand2b_1
*I *884:B I *D sky130_fd_sc_hd__nand2_1
*I *897:B I *D sky130_fd_sc_hd__nor3_1
*I *882:B I *D sky130_fd_sc_hd__nand2b_1
*I *889:B I *D sky130_fd_sc_hd__nor4_1
*I *891:B I *D sky130_fd_sc_hd__nor3_1
*CAP
1 ui_in[4] 0.00207671
2 *886:A_N 2.94948e-05
3 *884:B 0.000123632
4 *897:B 0.000329802
5 *882:B 1.24066e-05
6 *889:B 0
7 *891:B 9.7554e-05
8 *725:50 0.0007251
9 *725:36 0.000502925
10 *725:31 0.000451985
11 *725:22 0.000213058
12 *725:10 0.00218368
13 *886:A_N *727:30 0
14 *886:A_N *728:30 0
15 *891:B *726:13 0
16 *725:10 *726:11 0
17 *725:31 *886:B 0
18 *725:31 *727:25 0
19 *725:36 *727:30 0
20 *725:50 *884:A 0
21 *888:B *897:B 0
22 *890:B *897:B 0
23 *891:C *891:B 0
24 *897:C *897:B 0
25 *922:B1 *884:B 0
26 *922:B1 *897:B 0
27 *927:A1 *886:A_N 0
28 *927:A1 *725:36 0
29 *1041:C *725:36 0
30 *221:8 *882:B 0
31 *225:6 *725:36 0
32 *225:15 *725:36 0
33 *226:23 *897:B 0
34 *226:25 *897:B 0
35 *227:13 *897:B 0
36 *228:8 *725:31 0
37 *228:19 *725:50 0
38 *236:18 *897:B 0
39 *269:20 *884:B 0
40 *269:20 *897:B 0
41 *608:12 *725:10 0
42 *609:21 *725:10 0
43 *610:14 *725:10 0
44 *620:41 *725:50 0
45 *640:20 *725:10 0
46 *723:11 *725:10 0
*RES
1 ui_in[4] *725:10 15.0607 
2 *725:10 *891:B 15.9339 
3 *725:10 *725:22 4.77679 
4 *725:22 *889:B 9.3 
5 *725:22 *725:31 8.75 
6 *725:31 *725:36 5.03571 
7 *725:36 *882:B 14.0589 
8 *725:36 *725:50 7.80387 
9 *725:50 *897:B 20.9518 
10 *725:50 *884:B 16.5589 
11 *725:31 *886:A_N 14.5321 
*END

*D_NET *726 0.00622866
*CONN
*P ui_in[5] I
*I *889:A I *D sky130_fd_sc_hd__nor4_1
*I *886:B I *D sky130_fd_sc_hd__nand2b_1
*I *891:A I *D sky130_fd_sc_hd__nor3_1
*I *882:A_N I *D sky130_fd_sc_hd__nand2b_1
*I *884:A I *D sky130_fd_sc_hd__nand2_1
*I *897:A I *D sky130_fd_sc_hd__nor3_1
*CAP
1 ui_in[5] 0.0018025
2 *889:A 0
3 *886:B 0.000188879
4 *891:A 2.56688e-05
5 *882:A_N 2.0535e-05
6 *884:A 0.000301802
7 *897:A 0.000137741
8 *726:63 0.000272089
9 *726:22 0.000465212
10 *726:18 0.000443374
11 *726:13 0.000553993
12 *726:11 0.00201687
13 *886:B *727:25 0
14 *886:B *728:25 0
15 *726:11 *727:11 0
16 *726:11 *728:11 0
17 *726:11 *765:125 0
18 *726:13 *881:A_N 0
19 *726:18 *881:B 0
20 *883:B *897:A 0
21 *891:B *726:13 0
22 *927:B1 *884:A 0
23 *927:B2 *891:A 0
24 *1039:D *726:13 0
25 *1039:D *726:18 0
26 *1041:C *897:A 0
27 *220:6 *726:18 0
28 *221:8 *897:A 0
29 *221:8 *726:18 0
30 *223:9 *884:A 0
31 *226:22 *884:A 0
32 *226:22 *897:A 0
33 *228:19 *884:A 0
34 *230:12 *897:A 0
35 *609:21 *726:11 0
36 *610:14 *726:11 0
37 *639:18 *726:18 0
38 *725:10 *726:11 0
39 *725:31 *886:B 0
40 *725:50 *884:A 0
*RES
1 ui_in[5] *726:11 14.5287 
2 *726:11 *726:13 2.85714 
3 *726:13 *726:18 13.0357 
4 *726:18 *726:22 5.03571 
5 *726:22 *897:A 16.9607 
6 *726:22 *884:A 24.1409 
7 *726:18 *882:A_N 9.72857 
8 *726:13 *891:A 14.3357 
9 *726:11 *726:63 6.26786 
10 *726:63 *886:B 13.2732 
11 *726:63 *889:A 9.3 
*END

*D_NET *727 0.00526621
*CONN
*P ui_in[6] I
*I *889:C I *D sky130_fd_sc_hd__nor4_1
*I *893:A I *D sky130_fd_sc_hd__nor3_1
*I *887:B I *D sky130_fd_sc_hd__nand2b_1
*I *896:A I *D sky130_fd_sc_hd__nor3_1
*I *892:A I *D sky130_fd_sc_hd__nor3_1
*I *881:A_N I *D sky130_fd_sc_hd__nand2b_1
*CAP
1 ui_in[6] 0.00182843
2 *889:C 0
3 *893:A 0
4 *887:B 2.20324e-05
5 *896:A 0
6 *892:A 0.000119788
7 *881:A_N 0.000183069
8 *727:34 0.000205421
9 *727:30 0.000302034
10 *727:25 0.000394157
11 *727:24 0.000199789
12 *727:11 0.00201149
13 *881:A_N *881:B 0
14 *892:A *892:B 0
15 *727:11 *881:B 0
16 *727:11 *728:11 0
17 *727:11 *765:125 0
18 *727:25 *728:25 0
19 *727:30 *728:25 0
20 *727:30 *728:30 0
21 *886:A_N *727:30 0
22 *886:B *727:25 0
23 *892:C *892:A 0
24 *893:C *727:30 0
25 *927:A1 *881:A_N 0
26 *927:B2 *881:A_N 0
27 *226:22 *727:30 0
28 *232:5 *727:30 0
29 *610:14 *727:11 0
30 *725:31 *727:25 0
31 *725:36 *727:30 0
32 *726:11 *727:11 0
33 *726:13 *881:A_N 0
*RES
1 ui_in[6] *727:11 14.6352 
2 *727:11 *881:A_N 17.8045 
3 *727:11 *727:24 4.5 
4 *727:24 *727:25 4.23214 
5 *727:25 *727:30 8.82143 
6 *727:30 *727:34 6.44643 
7 *727:34 *892:A 11.8 
8 *727:34 *896:A 9.3 
9 *727:30 *887:B 14.3268 
10 *727:25 *893:A 9.3 
11 *727:24 *889:C 9.3 
*END

*D_NET *728 0.00518811
*CONN
*P ui_in[7] I
*I *889:D I *D sky130_fd_sc_hd__nor4_1
*I *893:B I *D sky130_fd_sc_hd__nor3_1
*I *892:B I *D sky130_fd_sc_hd__nor3_1
*I *896:B I *D sky130_fd_sc_hd__nor3_1
*I *887:A_N I *D sky130_fd_sc_hd__nand2b_1
*I *881:B I *D sky130_fd_sc_hd__nand2b_1
*CAP
1 ui_in[7] 0.00172481
2 *889:D 0
3 *893:B 2.0535e-05
4 *892:B 8.55626e-05
5 *896:B 2.26741e-05
6 *887:A_N 0
7 *881:B 0.000177912
8 *728:41 0.000242792
9 *728:30 0.000359775
10 *728:25 0.000448539
11 *728:24 0.000202783
12 *728:11 0.00190272
13 *728:11 *765:125 0
14 *881:A_N *881:B 0
15 *886:A_N *728:30 0
16 *886:B *728:25 0
17 *892:A *892:B 0
18 *893:C *728:30 0
19 *917:A1 *728:11 0
20 *927:A1 *881:B 0
21 *927:A1 *728:11 0
22 *927:B2 *881:B 0
23 *941:A1 *728:30 0
24 *1018:C *728:11 0
25 *223:9 *728:30 0
26 *223:9 *728:41 0
27 *228:8 *881:B 0
28 *231:9 *892:B 0
29 *231:9 *896:B 0
30 *269:20 *728:41 0
31 *679:34 *728:11 0
32 *726:11 *728:11 0
33 *726:18 *881:B 0
34 *727:11 *881:B 0
35 *727:11 *728:11 0
36 *727:25 *728:25 0
37 *727:30 *728:25 0
38 *727:30 *728:30 0
*RES
1 ui_in[7] *728:11 15.7423 
2 *728:11 *881:B 17.7554 
3 *728:11 *728:24 4.5 
4 *728:24 *728:25 4.23214 
5 *728:25 *728:30 9.42857 
6 *728:30 *887:A_N 13.8 
7 *728:30 *728:41 7.58929 
8 *728:41 *896:B 9.83571 
9 *728:41 *892:B 11.0857 
10 *728:25 *893:B 9.72857 
11 *728:24 *889:D 9.3 
*END

*D_NET *737 0.000868854
*CONN
*P uio_oe[0] O
*I *1513:HI O *D sky130_fd_sc_hd__conb_1
*CAP
1 uio_oe[0] 0.000434427
2 *1513:HI 0.000434427
3 uio_oe[0] uio_oe[1] 0
4 uio_oe[0] uio_out[7] 0
5 uio_oe[0] *746:29 0
6 *1500:D uio_oe[0] 0
7 *163:9 uio_oe[0] 0
8 *590:12 uio_oe[0] 0
9 *592:132 uio_oe[0] 0
*RES
1 *1513:HI uio_oe[0] 23.5806 
*END

*D_NET *738 0.000868811
*CONN
*P uio_oe[1] O
*I *1514:HI O *D sky130_fd_sc_hd__conb_1
*CAP
1 uio_oe[1] 0.000434406
2 *1514:HI 0.000434406
3 uio_oe[1] uio_oe[2] 0
4 uio_oe[1] *746:29 0
5 uio_oe[0] uio_oe[1] 0
6 *1500:D uio_oe[1] 0
7 *163:9 uio_oe[1] 0
*RES
1 *1514:HI uio_oe[1] 23.5806 
*END

*D_NET *739 0.000868894
*CONN
*P uio_oe[2] O
*I *1515:HI O *D sky130_fd_sc_hd__conb_1
*CAP
1 uio_oe[2] 0.000434447
2 *1515:HI 0.000434447
3 uio_oe[2] uio_oe[3] 0
4 uio_oe[2] *1506:CLK 0
5 uio_oe[2] *746:29 0
6 uio_oe[1] uio_oe[2] 0
7 *1506:D uio_oe[2] 0
8 *163:9 uio_oe[2] 0
*RES
1 *1515:HI uio_oe[2] 23.5806 
*END

*D_NET *740 0.000775479
*CONN
*P uio_oe[3] O
*I *1516:HI O *D sky130_fd_sc_hd__conb_1
*CAP
1 uio_oe[3] 0.00038774
2 *1516:HI 0.00038774
3 uio_oe[3] uio_oe[4] 0
4 uio_oe[3] uio_oe[5] 0
5 uio_oe[2] uio_oe[3] 0
6 *163:9 uio_oe[3] 0
*RES
1 *1516:HI uio_oe[3] 23.4759 
*END

*D_NET *741 0.000653453
*CONN
*P uio_oe[4] O
*I *1517:HI O *D sky130_fd_sc_hd__conb_1
*CAP
1 uio_oe[4] 0.000326726
2 *1517:HI 0.000326726
3 uio_oe[4] uio_oe[5] 0
4 uio_oe[3] uio_oe[4] 0
*RES
1 *1517:HI uio_oe[4] 25.1224 
*END

*D_NET *742 0.000645385
*CONN
*P uio_oe[5] O
*I *1518:HI O *D sky130_fd_sc_hd__conb_1
*CAP
1 uio_oe[5] 0.000322692
2 *1518:HI 0.000322692
3 uio_oe[5] uio_oe[6] 0
4 uio_oe[3] uio_oe[5] 0
5 uio_oe[4] uio_oe[5] 0
6 *163:9 uio_oe[5] 0
*RES
1 *1518:HI uio_oe[5] 22.1188 
*END

*D_NET *743 0.000645385
*CONN
*P uio_oe[6] O
*I *1519:HI O *D sky130_fd_sc_hd__conb_1
*CAP
1 uio_oe[6] 0.000322692
2 *1519:HI 0.000322692
3 uio_oe[6] uio_oe[7] 0
4 uio_oe[5] uio_oe[6] 0
5 *163:9 uio_oe[6] 0
*RES
1 *1519:HI uio_oe[6] 22.1188 
*END

*D_NET *744 0.000605587
*CONN
*P uio_oe[7] O
*I *1520:HI O *D sky130_fd_sc_hd__conb_1
*CAP
1 uio_oe[7] 0.000302793
2 *1520:HI 0.000302793
3 uio_oe[6] uio_oe[7] 0
4 *163:9 uio_oe[7] 0
*RES
1 *1520:HI uio_oe[7] 22.0467 
*END

*D_NET *745 0.00301783
*CONN
*P uio_out[0] O
*I *1001:SLEEP I *D sky130_fd_sc_hd__lpflow_inputiso1p_1
*I *1000:B I *D sky130_fd_sc_hd__nor2_1
*I *831:X O *D sky130_fd_sc_hd__and2_0
*CAP
1 uio_out[0] 0.000416417
2 *1001:SLEEP 0
3 *1000:B 0.000410463
4 *831:X 0.000344774
5 *745:14 0.000747723
6 *745:9 0.00109845
7 uio_out[0] uio_out[1] 0
8 uio_out[0] uo_out[7] 0
9 *1000:B *1390:CLK 0
10 *1000:B *1508:CLK 0
11 *1000:B *771:20 0
12 *745:9 *746:9 0
13 *745:14 uio_out[3] 0
14 *745:14 *801:A 0
15 *745:14 *1390:CLK 0
16 *745:14 *746:9 0
17 *745:14 *746:16 0
18 *745:14 *747:18 0
19 *745:14 *748:28 0
20 *1001:A *1000:B 0
21 *1369:B1 *745:9 0
22 *1487:D *1000:B 0
23 *1508:D *1000:B 0
24 *315:8 *1000:B 0
25 *588:14 *745:9 0
26 *592:85 *745:9 0
27 *592:85 *745:14 0
28 *603:10 *1000:B 0
29 *603:10 *745:14 0
30 *603:12 *1000:B 0
31 *603:14 *1000:B 0
32 *700:6 *745:9 0
*RES
1 *831:X *745:9 22.7873 
2 *745:9 *745:14 5.08232 
3 *745:14 *1000:B 22.8179 
4 *745:14 *1001:SLEEP 13.8 
5 *745:9 uio_out[0] 5.11297 
*END

*D_NET *746 0.00970402
*CONN
*P uio_out[1] O
*I *975:A1 I *D sky130_fd_sc_hd__a22o_1
*I *780:A I *D sky130_fd_sc_hd__clkinv_1
*I *803:A I *D sky130_fd_sc_hd__nand2_1
*I *1333:A1 I *D sky130_fd_sc_hd__a21oi_1
*I *809:A1 I *D sky130_fd_sc_hd__a31oi_1
*I *805:A1 I *D sky130_fd_sc_hd__a21oi_1
*I *804:A I *D sky130_fd_sc_hd__and3_1
*I *1369:A1 I *D sky130_fd_sc_hd__a21o_1
*I *1383:Q O *D sky130_fd_sc_hd__dfxtp_1
*CAP
1 uio_out[1] 0.000442467
2 *975:A1 0.000329853
3 *780:A 0
4 *803:A 0.000271377
5 *1333:A1 0
6 *809:A1 0.000266316
7 *805:A1 0.000344258
8 *804:A 0
9 *1369:A1 0
10 *1383:Q 0
11 *746:46 0.000610574
12 *746:44 0.000206684
13 *746:34 0.000643531
14 *746:29 0.00167553
15 *746:23 0.00126935
16 *746:16 0.000357032
17 *746:9 0.00172733
18 *746:4 0.00155972
19 uio_out[1] uio_out[2] 0
20 *803:A *1506:CLK 0
21 *809:A1 *752:47 0
22 *746:9 *747:18 0
23 *746:16 *747:18 0
24 *746:29 *801:A 0
25 *746:29 *1390:CLK 0
26 *746:44 *752:47 0
27 uio_oe[0] *746:29 0
28 uio_oe[1] *746:29 0
29 uio_oe[2] *746:29 0
30 uio_out[0] uio_out[1] 0
31 *804:B *803:A 0
32 *810:B1 *809:A1 0
33 *822:SLEEP *975:A1 0
34 *904:A *975:A1 0
35 *1001:A *746:23 0
36 *1333:A2 *746:44 0
37 *1333:B1 *805:A1 0
38 *1333:B1 *809:A1 0
39 *1364:A *803:A 0
40 *1366:A *809:A1 0
41 *1366:B *805:A1 0
42 *1366:D_N *805:A1 0
43 *1369:B1 *746:23 0
44 *1389:D *975:A1 0
45 *1503:RESET_B *805:A1 0
46 *1508:D *746:23 0
47 *159:10 *803:A 0
48 *160:10 *805:A1 0
49 *163:9 *746:29 0
50 *163:9 *746:34 0
51 *242:20 *746:9 0
52 *248:13 *746:9 0
53 *316:11 *746:23 0
54 *554:13 *746:34 0
55 *575:11 *805:A1 0
56 *577:12 *746:29 0
57 *577:12 *746:34 0
58 *592:80 *746:9 0
59 *592:85 *746:9 0
60 *603:10 *746:16 0
61 *704:34 *803:A 0
62 *705:53 *746:44 0
63 *706:21 *803:A 0
64 *721:59 *746:29 0
65 *745:9 *746:9 0
66 *745:14 *746:9 0
67 *745:14 *746:16 0
*RES
1 *1383:Q *746:4 9.3 
2 *746:4 *746:9 14.6621 
3 *746:9 *746:16 8.34189 
4 *746:16 *1369:A1 9.3 
5 *746:16 *746:23 6.30357 
6 *746:23 *746:29 11.9245 
7 *746:29 *746:34 5.24719 
8 *746:34 *804:A 13.8 
9 *746:34 *746:44 9.25 
10 *746:44 *746:46 4.5 
11 *746:46 *805:A1 21.425 
12 *746:46 *809:A1 19.675 
13 *746:44 *1333:A1 9.3 
14 *746:29 *803:A 23.2904 
15 *746:23 *780:A 9.3 
16 *746:9 uio_out[1] 5.2195 
17 *746:4 *975:A1 25.2107 
*END

*D_NET *747 0.00846806
*CONN
*P uio_out[2] O
*I *978:A1 I *D sky130_fd_sc_hd__o21ai_0
*I *801:A I *D sky130_fd_sc_hd__xor2_1
*I *1002:A I *D sky130_fd_sc_hd__nand2_1
*I *1384:Q O *D sky130_fd_sc_hd__dfxtp_1
*CAP
1 uio_out[2] 0.000546667
2 *978:A1 5.3071e-05
3 *801:A 0.00252063
4 *1002:A 0.000144828
5 *1384:Q 0
6 *747:18 0.00386624
7 *747:6 0.00111367
8 *747:5 0.000222961
9 uio_out[2] uio_out[3] 0
10 uio_out[2] uo_out[7] 0
11 *801:A uio_out[3] 0
12 *1002:A *1391:CLK 0
13 *747:6 *1391:CLK 0
14 uio_out[1] uio_out[2] 0
15 *977:A *978:A1 0
16 *977:A *747:6 0
17 *1004:A *1002:A 0
18 *1333:B1 *801:A 0
19 *1342:B1 *801:A 0
20 *138:19 *801:A 0
21 *168:31 *801:A 0
22 *169:13 *801:A 0
23 *170:10 *801:A 0
24 *278:11 *1002:A 0
25 *278:11 *747:6 0
26 *299:8 *978:A1 0
27 *299:8 *747:6 0
28 *577:12 *801:A 0
29 *703:9 *801:A 0
30 *703:14 *801:A 0
31 *704:11 *801:A 0
32 *704:24 *801:A 0
33 *745:14 *801:A 0
34 *745:14 *747:18 0
35 *746:9 *747:18 0
36 *746:16 *747:18 0
37 *746:29 *801:A 0
*RES
1 *1384:Q *747:5 13.8 
2 *747:5 *747:6 3.91964 
3 *747:6 *1002:A 17.0411 
4 *747:6 *747:18 6.30363 
5 *747:18 *801:A 27.617 
6 *747:18 uio_out[2] 5.64563 
7 *747:5 *978:A1 15.0679 
*END

*D_NET *748 0.00443325
*CONN
*P uio_out[3] O
*I *876:SLEEP I *D sky130_fd_sc_hd__lpflow_isobufsrc_1
*I *998:A1 I *D sky130_fd_sc_hd__a22o_1
*I *1389:Q O *D sky130_fd_sc_hd__dfxtp_1
*CAP
1 uio_out[3] 0.000500488
2 *876:SLEEP 2.55622e-05
3 *998:A1 0.000202092
4 *1389:Q 6.29026e-05
5 *748:28 0.00195163
6 *748:6 0.00169057
7 uio_out[3] uio_out[4] 0
8 *876:SLEEP *1390:CLK 0
9 *748:6 *822:A 0
10 *748:28 uo_out[0] 0
11 *748:28 *880:A_N 0
12 uio_out[2] uio_out[3] 0
13 *801:A uio_out[3] 0
14 *975:B2 *998:A1 0
15 *977:B *998:A1 0
16 *998:B1 *998:A1 0
17 *998:B2 *998:A1 0
18 *999:B *876:SLEEP 0
19 *1389:D *748:6 0
20 *174:6 *998:A1 0
21 *588:10 *748:28 0
22 *592:80 *748:28 0
23 *592:85 *876:SLEEP 0
24 *592:85 *748:28 0
25 *721:59 uio_out[3] 0
26 *721:59 *748:28 0
27 *745:14 uio_out[3] 0
28 *745:14 *748:28 0
*RES
1 *1389:Q *748:6 15.2911 
2 *748:6 *998:A1 18.5054 
3 *748:6 *748:28 8.57373 
4 *748:28 uio_out[3] 5.38087 
5 *748:28 *876:SLEEP 17.7904 
*END

*D_NET *749 0.00271364
*CONN
*P uio_out[4] O
*I *824:B I *D sky130_fd_sc_hd__nor2_1
*I *787:X O *D sky130_fd_sc_hd__lpflow_isobufsrc_1
*CAP
1 uio_out[4] 0.00115318
2 *824:B 0.000203639
3 *787:X 0
4 *749:4 0.00135682
5 uio_out[4] uio_out[5] 0
6 uio_out[4] uio_out[6] 0
7 uio_out[4] *880:A_N 0
8 *824:B *750:32 0
9 uio_out[3] uio_out[4] 0
10 *946:A *824:B 0
11 *979:A2 uio_out[4] 0
12 *1384:D uio_out[4] 0
13 *219:17 *824:B 0
14 *723:53 uio_out[4] 0
*RES
1 *787:X *749:4 9.3 
2 *749:4 uio_out[4] 17.0783 
3 *749:4 *824:B 13.55 
*END

*D_NET *750 0.00463977
*CONN
*P uio_out[5] O
*I *824:A I *D sky130_fd_sc_hd__nor2_1
*I *822:A I *D sky130_fd_sc_hd__lpflow_isobufsrc_1
*I *979:A1 I *D sky130_fd_sc_hd__a21oi_1
*I *786:X O *D sky130_fd_sc_hd__lpflow_isobufsrc_1
*CAP
1 uio_out[5] 0.00112677
2 *824:A 0
3 *822:A 0.000684279
4 *979:A1 8.17123e-05
5 *786:X 0
6 *750:32 0.00102567
7 *750:8 0.00129421
8 *750:4 0.000427126
9 uio_out[5] uio_out[6] 0
10 uio_out[5] uo_out[6] 0
11 uio_out[5] *880:A_N 0
12 *822:A uo_out[0] 0
13 *822:A uo_out[1] 0
14 uio_out[4] uio_out[5] 0
15 *824:B *750:32 0
16 *946:A uio_out[5] 0
17 *946:A *750:32 0
18 *979:B1 *822:A 0
19 *979:B1 *979:A1 0
20 *1384:D uio_out[5] 0
21 *1389:D *822:A 0
22 *176:12 *750:32 0
23 *219:17 *750:32 0
24 *248:13 *822:A 0
25 *278:11 uio_out[5] 0
26 *278:11 *750:8 0
27 *588:10 *822:A 0
28 *721:26 *750:32 0
29 *748:6 *822:A 0
*RES
1 *786:X *750:4 9.3 
2 *750:4 *750:8 10.9464 
3 *750:8 uio_out[5] 20.7727 
4 *750:8 *979:A1 11.0679 
5 *750:4 *750:32 7.125 
6 *750:32 *822:A 31.2537 
7 *750:32 *824:A 9.3 
*END

*D_NET *751 0.00528572
*CONN
*P uio_out[6] O
*I *880:A_N I *D sky130_fd_sc_hd__nand2b_1
*I *1370:A I *D sky130_fd_sc_hd__or3_1
*I *1509:Q O *D sky130_fd_sc_hd__dfrtp_1
*CAP
1 uio_out[6] 0.000276893
2 *880:A_N 0.00115268
3 *1370:A 0.000308194
4 *1509:Q 0
5 *751:17 0.00233467
6 *751:5 0.00121329
7 uio_out[6] uio_out[7] 0
8 *751:17 *752:98 0
9 *751:17 *771:72 0
10 uio_out[4] uio_out[6] 0
11 uio_out[4] *880:A_N 0
12 uio_out[5] uio_out[6] 0
13 uio_out[5] *880:A_N 0
14 *1328:B *1370:A 0
15 *1328:B *751:17 0
16 *1365:B2 *751:17 0
17 *1486:D *751:17 0
18 *1509:D *1370:A 0
19 *1509:D *751:17 0
20 *360:434 *1370:A 0
21 *588:10 *880:A_N 0
22 *592:112 *751:17 0
23 *721:19 *880:A_N 0
24 *721:59 uio_out[6] 0
25 *721:59 *880:A_N 0
26 *748:28 *880:A_N 0
*RES
1 *1509:Q *751:5 13.8 
2 *751:5 *1370:A 20.3893 
3 *751:5 *751:17 24.0261 
4 *751:17 uio_out[6] 4.52233 
5 *751:17 *880:A_N 21.6416 
*END

*D_NET *752 0.0101651
*CONN
*P uio_out[7] O
*I *803:B I *D sky130_fd_sc_hd__nand2_1
*I *830:A1 I *D sky130_fd_sc_hd__o21ai_0
*I *1505:D I *D sky130_fd_sc_hd__dfrtp_1
*I *807:A I *D sky130_fd_sc_hd__nor3_1
*I *811:A2 I *D sky130_fd_sc_hd__a21o_1
*I *809:A3 I *D sky130_fd_sc_hd__a31oi_1
*I *820:A3 I *D sky130_fd_sc_hd__a32o_1
*I *804:C I *D sky130_fd_sc_hd__and3_1
*I *1334:B1 I *D sky130_fd_sc_hd__o21ai_0
*I *1510:Q O *D sky130_fd_sc_hd__dfrtp_1
*CAP
1 uio_out[7] 0.000402775
2 *803:B 0
3 *830:A1 0.000119061
4 *1505:D 0.000104386
5 *807:A 0
6 *811:A2 2.0535e-05
7 *809:A3 0
8 *820:A3 0.000575538
9 *804:C 9.41189e-06
10 *1334:B1 0.000127916
11 *1510:Q 0.00118445
12 *752:100 0.000104386
13 *752:98 0.000952795
14 *752:87 0.000806698
15 *752:83 0.000732028
16 *752:75 0.000655332
17 *752:47 0.00115033
18 *752:31 0.000718836
19 *752:16 0.000388296
20 *752:13 0.000666074
21 *752:12 0.00144627
22 uio_out[7] *1500:CLK 0
23 uio_out[7] *771:72 0
24 *820:A3 *1502:CLK 0
25 *752:12 *769:42 0
26 *752:87 *771:45 0
27 *752:98 *771:72 0
28 uio_oe[0] uio_out[7] 0
29 uio_out[6] uio_out[7] 0
30 *807:C uio_out[7] 0
31 *808:A *820:A3 0
32 *809:A1 *752:47 0
33 *809:A2 *820:A3 0
34 *809:B1 *752:47 0
35 *810:B1 *820:A3 0
36 *810:B1 *752:47 0
37 *811:A1 *752:98 0
38 *813:A *752:12 0
39 *814:A *820:A3 0
40 *820:A2 *820:A3 0
41 *820:B2 *820:A3 0
42 *829:A *830:A1 0
43 *830:A2 *830:A1 0
44 *1261:A *752:12 0
45 *1334:A2 *752:16 0
46 *1334:A2 *752:75 0
47 *1335:C *752:47 0
48 *1337:A *1334:B1 0
49 *1346:B *752:12 0
50 *1346:C *752:12 0
51 *1349:C *752:12 0
52 *1357:B1 *752:12 0
53 *1364:B *752:75 0
54 *1365:B1 *830:A1 0
55 *1366:D_N *752:31 0
56 *1367:A *752:31 0
57 *1368:B1 *752:47 0
58 *1489:D *752:12 0
59 *1493:RESET_B *752:12 0
60 *1502:RESET_B *820:A3 0
61 *1503:RESET_B *752:12 0
62 *1504:D *752:87 0
63 *1507:D *752:87 0
64 *138:19 *752:83 0
65 *164:5 *820:A3 0
66 *164:5 *752:47 0
67 *555:5 *1334:B1 0
68 *555:36 *752:83 0
69 *577:12 *830:A1 0
70 *577:12 *752:87 0
71 *580:10 *752:12 0
72 *584:23 *752:12 0
73 *584:31 *752:12 0
74 *585:8 *752:12 0
75 *586:49 *752:12 0
76 *592:121 uio_out[7] 0
77 *592:132 uio_out[7] 0
78 *592:132 *752:98 0
79 *592:134 *752:98 0
80 *592:140 *752:98 0
81 *592:382 *752:12 0
82 *704:6 *820:A3 0
83 *704:34 *752:75 0
84 *704:34 *752:83 0
85 *705:7 *820:A3 0
86 *705:53 *752:47 0
87 *706:21 *752:75 0
88 *721:59 uio_out[7] 0
89 *746:44 *752:47 0
90 *751:17 *752:98 0
*RES
1 *1510:Q *752:12 45.1929 
2 *752:12 *752:13 5.46429 
3 *752:13 *752:16 7.35714 
4 *752:16 *1334:B1 16.5321 
5 *752:16 *752:31 3.08929 
6 *752:31 *804:C 13.9964 
7 *752:31 *752:47 16.9464 
8 *752:47 *820:A3 30.6571 
9 *752:47 *809:A3 9.3 
10 *752:13 *752:75 5.875 
11 *752:75 *752:83 13.1725 
12 *752:83 *752:87 9.59821 
13 *752:87 *811:A2 9.72857 
14 *752:87 *752:98 16.7321 
15 *752:98 *752:100 4.5 
16 *752:100 *807:A 9.3 
17 *752:100 *1505:D 11.4786 
18 *752:98 uio_out[7] 11.1728 
19 *752:83 *830:A1 16.5054 
20 *752:75 *803:B 9.3 
*END

*D_NET *753 0.000775378
*CONN
*P uo_out[0] O
*I *904:Y O *D sky130_fd_sc_hd__nor2_1
*CAP
1 uo_out[0] 0.000387689
2 *904:Y 0.000387689
3 uo_out[0] uo_out[1] 0
4 uo_out[0] uo_out[2] 0
5 *822:A uo_out[0] 0
6 *248:13 uo_out[0] 0
7 *588:10 uo_out[0] 0
8 *748:28 uo_out[0] 0
*RES
1 *904:Y uo_out[0] 22.9014 
*END

*D_NET *754 0.00052576
*CONN
*P uo_out[1] O
*I *911:Y O *D sky130_fd_sc_hd__nor2_1
*CAP
1 uo_out[1] 0.00026288
2 *911:Y 0.00026288
3 uo_out[1] uo_out[2] 0
4 uo_out[0] uo_out[1] 0
5 *822:A uo_out[1] 0
*RES
1 *911:Y uo_out[1] 21.9026 
*END

*D_NET *755 0.00403594
*CONN
*P uo_out[2] O
*I *918:Y O *D sky130_fd_sc_hd__a31oi_1
*CAP
1 uo_out[2] 0.00201797
2 *918:Y 0.00201797
3 uo_out[2] uo_out[3] 0
4 uo_out[0] uo_out[2] 0
5 uo_out[1] uo_out[2] 0
6 *917:A1 uo_out[2] 0
7 *918:B1 uo_out[2] 0
8 *920:C2 uo_out[2] 0
9 *932:A1 uo_out[2] 0
10 *936:B2 uo_out[2] 0
11 *234:27 uo_out[2] 0
*RES
1 *918:Y uo_out[2] 29.2468 
*END

*D_NET *756 0.00361123
*CONN
*P uo_out[3] O
*I *925:Y O *D sky130_fd_sc_hd__a31oi_1
*CAP
1 uo_out[3] 0.00180561
2 *925:Y 0.00180561
3 uo_out[3] uo_out[4] 0
4 uo_out[3] uo_out[5] 0
5 uo_out[2] uo_out[3] 0
6 *917:A1 uo_out[3] 0
7 *925:A1 uo_out[3] 0
8 *284:26 uo_out[3] 0
*RES
1 *925:Y uo_out[3] 28.2225 
*END

*D_NET *757 0.00384004
*CONN
*P uo_out[4] O
*I *932:Y O *D sky130_fd_sc_hd__a31oi_1
*CAP
1 uo_out[4] 0.00192002
2 *932:Y 0.00192002
3 uo_out[4] uo_out[5] 0
4 uo_out[3] uo_out[4] 0
5 *920:C2 uo_out[4] 0
6 *284:26 uo_out[4] 0
*RES
1 *932:Y uo_out[4] 29.1461 
*END

*D_NET *758 0.00408688
*CONN
*P uo_out[5] O
*I *939:Y O *D sky130_fd_sc_hd__a31oi_1
*CAP
1 uo_out[5] 0.00204344
2 *939:Y 0.00204344
3 uo_out[5] uo_out[6] 0
4 uo_out[5] uo_out[7] 0
5 uo_out[5] *765:11 0
6 uo_out[3] uo_out[5] 0
7 uo_out[4] uo_out[5] 0
8 *925:A3 uo_out[5] 0
9 *949:A1 uo_out[5] 0
10 *231:50 uo_out[5] 0
11 *284:26 uo_out[5] 0
12 *721:19 uo_out[5] 0
*RES
1 *939:Y uo_out[5] 29.4097 
*END

*D_NET *759 0.00028043
*CONN
*P uo_out[6] O
*I *946:Y O *D sky130_fd_sc_hd__nor2_1
*CAP
1 uo_out[6] 0.000140215
2 *946:Y 0.000140215
3 uo_out[6] uo_out[7] 0
4 uio_out[5] uo_out[6] 0
5 uo_out[5] uo_out[6] 0
*RES
1 *946:Y uo_out[6] 22.4056 
*END

*D_NET *760 0.00398547
*CONN
*P uo_out[7] O
*I *953:Y O *D sky130_fd_sc_hd__a31oi_1
*CAP
1 uo_out[7] 0.00199274
2 *953:Y 0.00199274
3 uio_out[0] uo_out[7] 0
4 uio_out[2] uo_out[7] 0
5 uo_out[5] uo_out[7] 0
6 uo_out[6] uo_out[7] 0
7 *920:C2 uo_out[7] 0
8 *934:C2 uo_out[7] 0
9 *948:A2 uo_out[7] 0
*RES
1 *953:Y uo_out[7] 28.8743 
*END

*D_NET *763 0.00641643
*CONN
*I *1511:CLK I *D sky130_fd_sc_hd__dfrtp_1
*I *1434:CLK I *D sky130_fd_sc_hd__dfrtp_1
*I *1440:CLK I *D sky130_fd_sc_hd__dfrtp_1
*I *1439:CLK I *D sky130_fd_sc_hd__dfrtp_1
*I *1437:CLK I *D sky130_fd_sc_hd__dfrtp_1
*I *1467:CLK I *D sky130_fd_sc_hd__dfrtp_1
*I *1466:CLK I *D sky130_fd_sc_hd__dfrtp_1
*I *1433:CLK I *D sky130_fd_sc_hd__dfrtp_1
*I *1435:CLK I *D sky130_fd_sc_hd__dfrtp_1
*I *1824:X O *D sky130_fd_sc_hd__clkbuf_2
*CAP
1 *1511:CLK 0.000243352
2 *1434:CLK 0.000181821
3 *1440:CLK 0.000537333
4 *1439:CLK 0
5 *1437:CLK 0.000118806
6 *1467:CLK 0.000125805
7 *1466:CLK 0
8 *1433:CLK 0.000219422
9 *1435:CLK 0.000143745
10 *1824:X 4.53482e-05
11 *763:71 0.000494741
12 *763:59 0.000579687
13 *763:40 0.000486112
14 *763:30 0.000977125
15 *763:29 0.000777978
16 *763:27 0.000152488
17 *763:11 0.000783785
18 *763:7 0.000548886
19 *763:7 *1824:A 0
20 *763:7 *764:8 0
21 *1173:A *763:30 0
22 *1176:A *1433:CLK 0
23 *1176:B *1435:CLK 0
24 *1180:A *1437:CLK 0
25 *1180:A *1467:CLK 0
26 *1181:B *1437:CLK 0
27 *1182:A *1437:CLK 0
28 *1184:A *1511:CLK 0
29 *1186:A *1440:CLK 0
30 *1189:B *1440:CLK 0
31 *1271:A *763:30 0
32 *1271:B *763:40 0
33 *1272:A1 *1467:CLK 0
34 *1272:A2 *763:40 0
35 *1272:B1 *1467:CLK 0
36 *1272:B1 *763:40 0
37 *1434:D *763:30 0
38 *1435:RESET_B *763:11 0
39 *1439:D *1440:CLK 0
40 *1439:RESET_B *1440:CLK 0
41 *1466:D *763:30 0
42 *1466:RESET_B *1440:CLK 0
43 *1466:RESET_B *763:30 0
44 *1466:RESET_B *763:59 0
45 *315:145 *1440:CLK 0
46 *316:74 *1440:CLK 0
47 *316:574 *1434:CLK 0
48 *316:574 *1511:CLK 0
49 *316:592 *1433:CLK 0
50 *316:615 *1435:CLK 0
51 *316:615 *763:11 0
52 *316:664 *1437:CLK 0
53 *578:13 *1511:CLK 0
54 *578:13 *763:11 0
55 *578:13 *763:27 0
56 *578:13 *763:71 0
57 *579:12 *1437:CLK 0
58 *579:12 *1467:CLK 0
59 *603:817 *1440:CLK 0
60 *603:833 *763:11 0
61 *654:5 *763:30 0
*RES
1 *1824:X *763:7 14.7464 
2 *763:7 *763:11 13.5357 
3 *763:11 *1435:CLK 12.3 
4 *763:11 *1433:CLK 23.2821 
5 *763:7 *763:27 1.94643 
6 *763:27 *763:29 4.5 
7 *763:29 *763:30 15.3214 
8 *763:30 *1466:CLK 9.3 
9 *763:30 *763:40 9.57143 
10 *763:40 *1467:CLK 16.6571 
11 *763:40 *1437:CLK 16.4071 
12 *763:29 *763:59 0.946429 
13 *763:59 *1439:CLK 9.3 
14 *763:59 *1440:CLK 20.5143 
15 *763:27 *763:71 1.64286 
16 *763:71 *1434:CLK 17.6571 
17 *763:71 *1511:CLK 19.3893 
*END

*D_NET *764 0.00983341
*CONN
*I *1432:CLK I *D sky130_fd_sc_hd__dfrtp_1
*I *1373:CLK I *D sky130_fd_sc_hd__dfrtp_1
*I *1468:CLK I *D sky130_fd_sc_hd__dfrtp_1
*I *1436:CLK I *D sky130_fd_sc_hd__dfrtp_1
*I *1372:CLK I *D sky130_fd_sc_hd__dfrtp_1
*I *1374:CLK I *D sky130_fd_sc_hd__dfrtp_1
*I *1382:CLK I *D sky130_fd_sc_hd__dfrtp_1
*I *1380:CLK I *D sky130_fd_sc_hd__dfrtp_1
*I *1381:CLK I *D sky130_fd_sc_hd__dfrtp_1
*I *1371:CLK I *D sky130_fd_sc_hd__dfstp_2
*I *1512:CLK I *D sky130_fd_sc_hd__dfrtp_1
*I *1377:CLK I *D sky130_fd_sc_hd__dfrtp_1
*I *1379:CLK I *D sky130_fd_sc_hd__dfrtp_1
*I *1825:X O *D sky130_fd_sc_hd__clkbuf_2
*CAP
1 *1432:CLK 0.000143745
2 *1373:CLK 3.50807e-05
3 *1468:CLK 0.000264789
4 *1436:CLK 0
5 *1372:CLK 0
6 *1374:CLK 0
7 *1382:CLK 0
8 *1380:CLK 0.000124066
9 *1381:CLK 0.00014944
10 *1371:CLK 2.56688e-05
11 *1512:CLK 0.000396701
12 *1377:CLK 0.000180109
13 *1379:CLK 0.000235163
14 *1825:X 0.000840751
15 *764:104 0.000444118
16 *764:72 0.000383227
17 *764:69 0.000518574
18 *764:64 0.000625542
19 *764:62 0.000259554
20 *764:61 0.000621772
21 *764:57 0.000811561
22 *764:22 0.000642677
23 *764:17 0.000948391
24 *764:12 0.000499788
25 *764:10 0.000612468
26 *764:8 0.00107023
27 *764:8 *1824:A 0
28 *845:A *1512:CLK 0
29 *845:A *764:17 0
30 *848:A *764:12 0
31 *848:A *764:17 0
32 *855:A *764:62 0
33 *855:A *764:64 0
34 *867:B *764:64 0
35 *867:B *764:69 0
36 *867:C *764:69 0
37 *868:A *764:64 0
38 *869:A *764:64 0
39 *869:B *764:64 0
40 *970:B1 *1381:CLK 0
41 *970:B1 *764:72 0
42 *1166:A *1512:CLK 0
43 *1167:A1 *764:8 0
44 *1177:A *1468:CLK 0
45 *1179:A1 *1468:CLK 0
46 *1179:A2 *1468:CLK 0
47 *1179:B1 *1468:CLK 0
48 *1274:B *1468:CLK 0
49 *1371:D *1371:CLK 0
50 *1372:D *764:64 0
51 *1373:D *764:57 0
52 *1373:D *764:61 0
53 *1379:RESET_B *1379:CLK 0
54 *1379:RESET_B *764:22 0
55 *1382:D *1381:CLK 0
56 *1382:D *764:72 0
57 *1432:D *764:8 0
58 *1432:D *764:10 0
59 *1432:RESET_B *764:8 0
60 *1432:RESET_B *764:10 0
61 *1436:D *1468:CLK 0
62 *181:35 *764:22 0
63 *181:61 *1379:CLK 0
64 *182:17 *764:22 0
65 *183:10 *764:69 0
66 *189:16 *764:64 0
67 *192:9 *764:22 0
68 *194:6 *764:22 0
69 *199:14 *764:64 0
70 *199:14 *764:69 0
71 *200:14 *764:17 0
72 *315:227 *764:8 0
73 *316:579 *764:8 0
74 *316:592 *764:8 0
75 *360:480 *764:8 0
76 *360:487 *764:8 0
77 *360:509 *764:8 0
78 *578:13 *764:10 0
79 *579:12 *1468:CLK 0
80 *579:12 *764:62 0
81 *579:12 *764:104 0
82 *592:262 *764:22 0
83 *592:271 *1377:CLK 0
84 *709:7 *1371:CLK 0
85 *710:29 *764:12 0
86 *710:29 *764:17 0
87 *711:10 *764:57 0
88 *720:11 *1380:CLK 0
89 *720:20 *1381:CLK 0
90 *763:7 *764:8 0
*RES
1 *1825:X *764:8 32.2643 
2 *764:8 *764:10 1.94643 
3 *764:10 *764:12 3.46429 
4 *764:12 *764:17 6.34795 
5 *764:17 *764:22 13.0439 
6 *764:22 *1379:CLK 23.4429 
7 *764:22 *1377:CLK 13.1214 
8 *764:17 *1512:CLK 18.9031 
9 *764:12 *1371:CLK 14.3357 
10 *764:10 *764:57 12.4286 
11 *764:57 *764:61 12.8393 
12 *764:61 *764:62 1.03571 
13 *764:62 *764:64 4.98214 
14 *764:64 *764:69 13.4107 
15 *764:69 *764:72 7.05357 
16 *764:72 *1381:CLK 17.1929 
17 *764:72 *1380:CLK 16.3893 
18 *764:69 *1382:CLK 9.3 
19 *764:64 *1374:CLK 13.8 
20 *764:62 *1372:CLK 13.8 
21 *764:61 *764:104 4.07143 
22 *764:104 *1436:CLK 13.8 
23 *764:104 *1468:CLK 19.7286 
24 *764:57 *1373:CLK 10.0321 
25 *764:8 *1432:CLK 16.8 
*END

*D_NET *765 0.0214817
*CONN
*I *1839:A I *D sky130_fd_sc_hd__clkbuf_2
*I *1840:A I *D sky130_fd_sc_hd__clkbuf_2
*I *1835:A I *D sky130_fd_sc_hd__clkbuf_2
*I *1836:A I *D sky130_fd_sc_hd__clkbuf_2
*I *1833:A I *D sky130_fd_sc_hd__clkbuf_2
*I *1834:A I *D sky130_fd_sc_hd__clkbuf_2
*I *1838:A I *D sky130_fd_sc_hd__clkbuf_2
*I *1837:A I *D sky130_fd_sc_hd__clkbuf_2
*I *1832:A I *D sky130_fd_sc_hd__clkbuf_2
*I *1831:A I *D sky130_fd_sc_hd__clkbuf_2
*I *1830:A I *D sky130_fd_sc_hd__clkbuf_2
*I *1829:A I *D sky130_fd_sc_hd__clkbuf_2
*I *1825:A I *D sky130_fd_sc_hd__clkbuf_2
*I *1824:A I *D sky130_fd_sc_hd__clkbuf_2
*I *1827:A I *D sky130_fd_sc_hd__clkbuf_2
*I *1828:A I *D sky130_fd_sc_hd__clkbuf_2
*I *1826:X O *D sky130_fd_sc_hd__clkbuf_16
*CAP
1 *1839:A 0
2 *1840:A 2.56688e-05
3 *1835:A 4.23535e-05
4 *1836:A 0
5 *1833:A 0.000462907
6 *1834:A 7.90067e-05
7 *1838:A 0.000242113
8 *1837:A 0.000127915
9 *1832:A 0.000232812
10 *1831:A 0.000226313
11 *1830:A 0.000188955
12 *1829:A 0
13 *1825:A 0
14 *1824:A 8.4707e-05
15 *1827:A 0.000219468
16 *1828:A 0.000242142
17 *1826:X 1.21519e-05
18 *765:141 0.00124339
19 *765:136 0.000743826
20 *765:135 0.00110857
21 *765:127 0.0011191
22 *765:125 0.00111859
23 *765:108 0.00136725
24 *765:97 0.00127761
25 *765:72 0.000738697
26 *765:54 0.00118933
27 *765:48 0.00149939
28 *765:37 0.000885879
29 *765:18 0.000674287
30 *765:14 0.00169278
31 *765:11 0.00222456
32 *765:8 0.00241192
33 *1828:A *767:5 0
34 *1830:A *1473:CLK 0
35 *1830:A *769:8 0
36 *1830:A *769:88 0
37 *1831:A *770:5 0
38 *1835:A *775:15 0
39 *1838:A *776:34 0
40 *765:54 *1472:CLK 0
41 *765:54 *1473:CLK 0
42 *765:127 *779:8 0
43 *765:135 *1446:CLK 0
44 *765:136 *1446:CLK 0
45 uo_out[5] *765:11 0
46 *898:A1 *1833:A 0
47 *901:B2 *1838:A 0
48 *901:C2 *1837:A 0
49 *903:B2 *765:11 0
50 *903:B2 *765:97 0
51 *908:B2 *765:11 0
52 *908:C2 *1833:A 0
53 *910:B2 *765:97 0
54 *913:C2 *765:11 0
55 *917:A1 *765:125 0
56 *922:B2 *1838:A 0
57 *927:C1 *765:125 0
58 *932:A1 *765:125 0
59 *934:C2 *765:11 0
60 *935:B2 *765:135 0
61 *948:A2 *765:11 0
62 *950:C2 *765:141 0
63 *951:A1 *765:141 0
64 *951:B2 *1833:A 0
65 *1016:D_N *765:135 0
66 *1039:A *765:135 0
67 *1039:B *765:135 0
68 *1039:C *765:135 0
69 *1039:D *765:127 0
70 *1039:D *765:135 0
71 *1193:A *1828:A 0
72 *1255:A *765:54 0
73 *1258:A *1830:A 0
74 *1258:A *765:54 0
75 *1279:B *765:14 0
76 *1281:A *765:14 0
77 *1282:B *765:14 0
78 *1282:B *765:48 0
79 *1284:A2 *765:14 0
80 *1296:A2 *1832:A 0
81 *1446:D *765:135 0
82 *1470:D *765:14 0
83 *1475:D *1832:A 0
84 *224:51 *765:141 0
85 *226:22 *765:125 0
86 *234:27 *765:97 0
87 *235:37 *765:97 0
88 *269:20 *765:108 0
89 *269:20 *765:125 0
90 *284:26 *765:11 0
91 *284:26 *765:97 0
92 *315:115 *765:54 0
93 *315:364 *765:14 0
94 *315:371 *765:14 0
95 *315:371 *765:18 0
96 *315:373 *765:18 0
97 *316:57 *765:14 0
98 *316:110 *1827:A 0
99 *360:325 *765:135 0
100 *360:434 *1832:A 0
101 *360:436 *1832:A 0
102 *360:436 *765:48 0
103 *360:436 *765:72 0
104 *360:441 *765:48 0
105 *559:31 *1830:A 0
106 *603:116 *1832:A 0
107 *603:116 *765:72 0
108 *603:124 *765:48 0
109 *603:124 *765:72 0
110 *603:128 *765:14 0
111 *603:128 *765:48 0
112 *603:130 *765:14 0
113 *603:141 *765:14 0
114 *603:143 *765:14 0
115 *603:149 *765:14 0
116 *603:149 *765:18 0
117 *605:23 *765:135 0
118 *608:12 *765:135 0
119 *609:21 *765:125 0
120 *610:14 *765:125 0
121 *627:27 *1833:A 0
122 *635:20 *1834:A 0
123 *636:17 *765:135 0
124 *640:20 *765:125 0
125 *643:17 *1833:A 0
126 *649:23 *1834:A 0
127 *655:38 *765:37 0
128 *656:25 *765:37 0
129 *657:12 *765:14 0
130 *657:23 *765:14 0
131 *661:11 *765:54 0
132 *661:30 *765:11 0
133 *661:30 *765:54 0
134 *662:20 *765:54 0
135 *662:34 *765:54 0
136 *663:26 *765:135 0
137 *664:11 *1831:A 0
138 *671:34 *1838:A 0
139 *672:11 *765:108 0
140 *672:11 *765:125 0
141 *682:9 *765:54 0
142 *682:50 *765:54 0
143 *683:29 *765:11 0
144 *726:11 *765:125 0
145 *727:11 *765:125 0
146 *728:11 *765:125 0
147 *763:7 *1824:A 0
148 *764:8 *1824:A 0
*RES
1 *1826:X *765:8 17.4868 
2 *765:8 *765:11 8.2134 
3 *765:11 *765:14 15.2321 
4 *765:14 *765:18 9.33036 
5 *765:18 *1828:A 14.3536 
6 *765:18 *1827:A 13.9429 
7 *765:14 *765:37 14.4544 
8 *765:37 *1824:A 11.0679 
9 *765:37 *1825:A 9.3 
10 *765:11 *765:48 4.98214 
11 *765:48 *765:54 11.9046 
12 *765:54 *1829:A 13.8 
13 *765:54 *1830:A 18.0321 
14 *765:48 *765:72 6.34821 
15 *765:72 *1831:A 18.5857 
16 *765:72 *1832:A 19.0857 
17 *765:8 *765:97 10.9576 
18 *765:97 *1837:A 18.1617 
19 *765:97 *765:108 0.299233 
20 *765:108 *1838:A 22.6475 
21 *765:108 *765:125 7.46559 
22 *765:125 *765:127 1.64286 
23 *765:127 *765:135 27.75 
24 *765:135 *765:136 0.946429 
25 *765:136 *765:141 19.6161 
26 *765:141 *1834:A 15.5946 
27 *765:141 *1833:A 22.5293 
28 *765:136 *1836:A 9.3 
29 *765:135 *1835:A 10.2464 
30 *765:127 *1840:A 14.3357 
31 *765:125 *1839:A 13.8 
*END

*D_NET *766 0.00682409
*CONN
*I *1445:CLK I *D sky130_fd_sc_hd__dfrtp_1
*I *1444:CLK I *D sky130_fd_sc_hd__dfrtp_1
*I *1412:CLK I *D sky130_fd_sc_hd__dfrtp_1
*I *1409:CLK I *D sky130_fd_sc_hd__dfrtp_1
*I *1411:CLK I *D sky130_fd_sc_hd__dfrtp_1
*I *1404:CLK I *D sky130_fd_sc_hd__dfrtp_1
*I *1378:CLK I *D sky130_fd_sc_hd__dfrtp_1
*I *1430:CLK I *D sky130_fd_sc_hd__dfrtp_1
*I *1410:CLK I *D sky130_fd_sc_hd__dfrtp_1
*I *1827:X O *D sky130_fd_sc_hd__clkbuf_2
*CAP
1 *1445:CLK 0.000349997
2 *1444:CLK 0
3 *1412:CLK 2.56688e-05
4 *1409:CLK 0.000368352
5 *1411:CLK 0
6 *1404:CLK 0.000563075
7 *1378:CLK 0.000517654
8 *1430:CLK 0.000112474
9 *1410:CLK 0
10 *1827:X 8.4707e-05
11 *766:40 0.000719791
12 *766:37 0.000717706
13 *766:32 0.000281656
14 *766:31 0.000807503
15 *766:24 0.000334936
16 *766:20 0.000550356
17 *766:13 0.000683864
18 *766:7 0.000706355
19 *1024:B *1445:CLK 0
20 *1101:A1 *766:20 0
21 *1101:A2 *1409:CLK 0
22 *1101:B1 *1409:CLK 0
23 *1102:A *1404:CLK 0
24 *1159:B *1430:CLK 0
25 *1159:B *766:32 0
26 *1159:B *766:40 0
27 *1163:A *1404:CLK 0
28 *1163:A *766:24 0
29 *1163:A *766:37 0
30 *1163:B *766:20 0
31 *1198:A *766:20 0
32 *1378:D *1378:CLK 0
33 *1378:RESET_B *1378:CLK 0
34 *1409:D *1409:CLK 0
35 *1410:D *1409:CLK 0
36 *1410:D *766:20 0
37 *1410:D *766:24 0
38 *1411:D *766:40 0
39 *1430:D *1430:CLK 0
40 *1430:RESET_B *1430:CLK 0
41 *1430:RESET_B *766:40 0
42 *1431:RESET_B *1412:CLK 0
43 *315:371 *1445:CLK 0
44 *315:373 *1445:CLK 0
45 *315:373 *766:13 0
46 *315:399 *1445:CLK 0
47 *315:399 *766:13 0
48 *316:110 *766:7 0
49 *316:119 *766:7 0
50 *360:150 *1430:CLK 0
51 *603:182 *766:13 0
52 *603:196 *1409:CLK 0
53 *603:207 *1409:CLK 0
54 *603:207 *766:32 0
55 *613:24 *766:20 0
56 *696:20 *1404:CLK 0
57 *696:20 *1430:CLK 0
58 *696:30 *1378:CLK 0
59 *696:30 *1409:CLK 0
60 *696:30 *766:20 0
61 *696:30 *766:24 0
62 *696:30 *766:32 0
63 *696:30 *766:37 0
64 *698:36 *766:13 0
65 *698:36 *766:20 0
66 *716:9 *1430:CLK 0
*RES
1 *1827:X *766:7 15.5679 
2 *766:7 *766:13 11.1607 
3 *766:13 *766:20 13.6964 
4 *766:20 *766:24 7.05357 
5 *766:24 *1410:CLK 9.3 
6 *766:24 *766:31 9.14286 
7 *766:31 *766:32 4.98214 
8 *766:32 *766:37 3.87792 
9 *766:37 *766:40 5.50821 
10 *766:40 *1430:CLK 16.3536 
11 *766:40 *1378:CLK 24.6036 
12 *766:37 *1404:CLK 21.0127 
13 *766:32 *1411:CLK 13.8 
14 *766:31 *1409:CLK 21.9964 
15 *766:20 *1412:CLK 14.3357 
16 *766:13 *1444:CLK 9.3 
17 *766:7 *1445:CLK 21.425 
*END

*D_NET *767 0.00425932
*CONN
*I *1469:CLK I *D sky130_fd_sc_hd__dfrtp_1
*I *1443:CLK I *D sky130_fd_sc_hd__dfrtp_1
*I *1441:CLK I *D sky130_fd_sc_hd__dfrtp_1
*I *1431:CLK I *D sky130_fd_sc_hd__dfrtp_1
*I *1375:CLK I *D sky130_fd_sc_hd__dfrtp_1
*I *1376:CLK I *D sky130_fd_sc_hd__dfrtp_1
*I *1442:CLK I *D sky130_fd_sc_hd__dfrtp_1
*I *1828:X O *D sky130_fd_sc_hd__clkbuf_2
*CAP
1 *1469:CLK 0.000232694
2 *1443:CLK 0.00043226
3 *1441:CLK 2.56688e-05
4 *1431:CLK 2.56688e-05
5 *1375:CLK 2.56688e-05
6 *1376:CLK 9.91025e-05
7 *1442:CLK 5.92521e-05
8 *1828:X 8.17123e-05
9 *767:58 0.000664954
10 *767:28 0.00045118
11 *767:26 0.000774313
12 *767:14 0.000620703
13 *767:10 0.000424658
14 *767:5 0.000341487
15 *958:B *767:28 0
16 *1164:A1 *1443:CLK 0
17 *1164:A1 *1469:CLK 0
18 *1164:A1 *767:26 0
19 *1192:A *1469:CLK 0
20 *1193:A *767:5 0
21 *1193:A *767:10 0
22 *1193:B *767:10 0
23 *1194:A *1469:CLK 0
24 *1194:A *767:5 0
25 *1194:B *767:10 0
26 *1195:A *1443:CLK 0
27 *1197:A *767:26 0
28 *1375:D *1376:CLK 0
29 *1375:RESET_B *1375:CLK 0
30 *1441:D *767:10 0
31 *1441:RESET_B *1443:CLK 0
32 *1443:D *1443:CLK 0
33 *1443:RESET_B *1443:CLK 0
34 *1512:D *767:26 0
35 *1512:D *767:28 0
36 *1512:RESET_B *767:28 0
37 *1828:A *767:5 0
38 *315:194 *1469:CLK 0
39 *315:199 *1443:CLK 0
40 *315:199 *1469:CLK 0
41 *315:205 *767:14 0
42 *316:84 *767:10 0
43 *316:84 *767:14 0
44 *316:84 *767:26 0
45 *360:452 *1469:CLK 0
46 *360:472 *767:10 0
47 *603:150 *1443:CLK 0
48 *715:10 *1376:CLK 0
*RES
1 *1828:X *767:5 11.0679 
2 *767:5 *767:10 10.1607 
3 *767:10 *767:14 7.66071 
4 *767:14 *1442:CLK 10.5679 
5 *767:14 *767:26 13.8929 
6 *767:26 *767:28 7.41071 
7 *767:28 *1376:CLK 16.05 
8 *767:28 *1375:CLK 14.3357 
9 *767:26 *1431:CLK 14.3357 
10 *767:10 *1441:CLK 14.3357 
11 *767:5 *767:58 4.5 
12 *767:58 *1443:CLK 22.8536 
13 *767:58 *1469:CLK 19.0857 
*END

*D_NET *768 0.00665094
*CONN
*I *1463:CLK I *D sky130_fd_sc_hd__dfrtp_1
*I *1472:CLK I *D sky130_fd_sc_hd__dfrtp_1
*I *1438:CLK I *D sky130_fd_sc_hd__dfrtp_1
*I *1465:CLK I *D sky130_fd_sc_hd__dfrtp_1
*I *1493:CLK I *D sky130_fd_sc_hd__dfrtp_1
*I *1494:CLK I *D sky130_fd_sc_hd__dfrtp_1
*I *1510:CLK I *D sky130_fd_sc_hd__dfrtp_1
*I *1495:CLK I *D sky130_fd_sc_hd__dfrtp_1
*I *1464:CLK I *D sky130_fd_sc_hd__dfrtp_1
*I *1829:X O *D sky130_fd_sc_hd__clkbuf_2
*CAP
1 *1463:CLK 0.000105242
2 *1472:CLK 0.000575834
3 *1438:CLK 0
4 *1465:CLK 0
5 *1493:CLK 0.000308458
6 *1494:CLK 0.000237864
7 *1510:CLK 0
8 *1495:CLK 0.000419257
9 *1464:CLK 0.000198505
10 *1829:X 0.000143697
11 *768:46 0.00061593
12 *768:35 0.000419257
13 *768:33 0.000224947
14 *768:22 0.000426205
15 *768:19 0.000474933
16 *768:18 0.000813218
17 *768:12 0.00121257
18 *768:8 0.000475026
19 *1260:A1 *768:12 0
20 *1260:A1 *768:18 0
21 *1260:B1 *768:8 0
22 *1260:B1 *768:12 0
23 *1261:A *1472:CLK 0
24 *1261:A *768:18 0
25 *1261:B *768:18 0
26 *1262:A *768:19 0
27 *1263:A *768:22 0
28 *1263:A *768:33 0
29 *1358:A *1493:CLK 0
30 *1358:B *1493:CLK 0
31 *1358:C *1493:CLK 0
32 *1437:RESET_B *768:22 0
33 *1437:RESET_B *768:33 0
34 *1463:D *768:12 0
35 *1464:RESET_B *768:33 0
36 *1465:RESET_B *768:19 0
37 *1493:D *1493:CLK 0
38 *1494:D *1494:CLK 0
39 *1494:RESET_B *1493:CLK 0
40 *1494:RESET_B *768:46 0
41 *1495:RESET_B *1495:CLK 0
42 *1510:D *1495:CLK 0
43 *1511:RESET_B *768:12 0
44 *360:528 *768:18 0
45 *586:8 *1494:CLK 0
46 *587:8 *1493:CLK 0
47 *587:8 *1495:CLK 0
48 *587:27 *1493:CLK 0
49 *592:173 *768:12 0
50 *592:200 *768:33 0
51 *603:875 *768:19 0
52 *603:889 *768:18 0
53 *653:10 *768:19 0
54 *661:11 *1472:CLK 0
55 *661:30 *1472:CLK 0
56 *682:9 *1472:CLK 0
57 *682:50 *1472:CLK 0
58 *683:29 *1472:CLK 0
59 *683:29 *768:18 0
60 *765:54 *1472:CLK 0
*RES
1 *1829:X *768:8 16.9071 
2 *768:8 *768:12 8.54393 
3 *768:12 *768:18 11.6713 
4 *768:18 *768:19 8.33929 
5 *768:19 *768:22 6.14286 
6 *768:22 *1464:CLK 17.9429 
7 *768:22 *768:33 3.46429 
8 *768:33 *768:35 4.5 
9 *768:35 *1495:CLK 18.05 
10 *768:35 *1510:CLK 9.3 
11 *768:33 *768:46 1.64286 
12 *768:46 *1494:CLK 18.7643 
13 *768:46 *1493:CLK 20.7464 
14 *768:19 *1465:CLK 9.3 
15 *768:18 *1438:CLK 9.3 
16 *768:12 *1472:CLK 19.5517 
17 *768:8 *1463:CLK 15.9964 
*END

*D_NET *769 0.00834124
*CONN
*I *1474:CLK I *D sky130_fd_sc_hd__dfrtp_1
*I *1473:CLK I *D sky130_fd_sc_hd__dfrtp_1
*I *1490:CLK I *D sky130_fd_sc_hd__dfrtp_1
*I *1488:CLK I *D sky130_fd_sc_hd__dfrtp_1
*I *1503:CLK I *D sky130_fd_sc_hd__dfrtp_1
*I *1502:CLK I *D sky130_fd_sc_hd__dfrtp_1
*I *1489:CLK I *D sky130_fd_sc_hd__dfrtp_1
*I *1506:CLK I *D sky130_fd_sc_hd__dfrtp_1
*I *1492:CLK I *D sky130_fd_sc_hd__dfrtp_1
*I *1491:CLK I *D sky130_fd_sc_hd__dfrtp_1
*I *1830:X O *D sky130_fd_sc_hd__clkbuf_2
*CAP
1 *1474:CLK 0
2 *1473:CLK 0.000354791
3 *1490:CLK 2.26741e-05
4 *1488:CLK 0
5 *1503:CLK 0
6 *1502:CLK 0.000326139
7 *1489:CLK 4.53482e-05
8 *1506:CLK 0.00115442
9 *1492:CLK 0
10 *1491:CLK 8.4707e-05
11 *1830:X 0
12 *769:88 0.000433723
13 *769:59 0.000758022
14 *769:54 0.00098911
15 *769:42 0.000957172
16 *769:38 0.000486991
17 *769:20 0.0013572
18 *769:17 0.000435596
19 *769:8 0.000532108
20 *769:4 0.000403241
21 uio_oe[2] *1506:CLK 0
22 *803:A *1506:CLK 0
23 *813:A *769:42 0
24 *814:SLEEP *1502:CLK 0
25 *815:B *1502:CLK 0
26 *820:A1 *769:59 0
27 *820:A3 *1502:CLK 0
28 *820:B1 *769:59 0
29 *820:B2 *1502:CLK 0
30 *1258:A *1473:CLK 0
31 *1260:A2 *1473:CLK 0
32 *1260:B1 *1473:CLK 0
33 *1333:A2 *769:59 0
34 *1335:B *1506:CLK 0
35 *1343:A2 *769:59 0
36 *1348:B1 *769:54 0
37 *1348:B1 *769:59 0
38 *1349:C *769:17 0
39 *1349:C *769:38 0
40 *1351:B *1491:CLK 0
41 *1352:C *1491:CLK 0
42 *1352:C *769:8 0
43 *1353:A2 *1506:CLK 0
44 *1357:B1 *769:8 0
45 *1365:A3 *1506:CLK 0
46 *1368:A2 *1506:CLK 0
47 *1488:D *769:54 0
48 *1488:D *769:59 0
49 *1488:RESET_B *769:54 0
50 *1492:D *1506:CLK 0
51 *1492:RESET_B *1506:CLK 0
52 *1503:D *769:59 0
53 *1506:D *1506:CLK 0
54 *1830:A *1473:CLK 0
55 *1830:A *769:8 0
56 *1830:A *769:88 0
57 *158:20 *769:59 0
58 *159:10 *1506:CLK 0
59 *168:15 *769:59 0
60 *168:45 *769:54 0
61 *556:12 *769:59 0
62 *559:26 *769:8 0
63 *559:26 *769:17 0
64 *559:26 *769:38 0
65 *559:31 *769:8 0
66 *565:17 *1491:CLK 0
67 *581:22 *769:54 0
68 *581:26 *769:42 0
69 *581:26 *769:54 0
70 *583:11 *1491:CLK 0
71 *583:17 *1491:CLK 0
72 *583:29 *769:8 0
73 *584:9 *1506:CLK 0
74 *585:8 *769:8 0
75 *592:173 *1473:CLK 0
76 *592:382 *1489:CLK 0
77 *592:382 *769:42 0
78 *592:382 *769:54 0
79 *593:11 *1506:CLK 0
80 *704:6 *769:59 0
81 *705:7 *1502:CLK 0
82 *705:53 *1506:CLK 0
83 *752:12 *769:42 0
84 *765:54 *1473:CLK 0
*RES
1 *1830:X *769:4 9.3 
2 *769:4 *769:8 11.5714 
3 *769:8 *1491:CLK 15.5679 
4 *769:8 *769:17 2.85714 
5 *769:17 *769:20 8.73214 
6 *769:20 *1492:CLK 9.3 
7 *769:20 *1506:CLK 44.2107 
8 *769:17 *769:38 7.05357 
9 *769:38 *769:42 12.1071 
10 *769:42 *1489:CLK 14.7464 
11 *769:42 *769:54 16.5893 
12 *769:54 *769:59 18.8393 
13 *769:59 *1502:CLK 25.3179 
14 *769:59 *1503:CLK 9.3 
15 *769:54 *1488:CLK 9.3 
16 *769:38 *1490:CLK 9.83571 
17 *769:4 *769:88 1.67857 
18 *769:88 *1473:CLK 26.2464 
19 *769:88 *1474:CLK 9.3 
*END

*D_NET *770 0.00549939
*CONN
*I *1461:CLK I *D sky130_fd_sc_hd__dfrtp_1
*I *1476:CLK I *D sky130_fd_sc_hd__dfrtp_1
*I *1486:CLK I *D sky130_fd_sc_hd__dfrtp_1
*I *1478:CLK I *D sky130_fd_sc_hd__dfrtp_1
*I *1475:CLK I *D sky130_fd_sc_hd__dfrtp_1
*I *1462:CLK I *D sky130_fd_sc_hd__dfrtp_1
*I *1470:CLK I *D sky130_fd_sc_hd__dfrtp_1
*I *1471:CLK I *D sky130_fd_sc_hd__dfrtp_1
*I *1831:X O *D sky130_fd_sc_hd__clkbuf_2
*CAP
1 *1461:CLK 0.000458975
2 *1476:CLK 0
3 *1486:CLK 0.000486278
4 *1478:CLK 0.000222463
5 *1475:CLK 0
6 *1462:CLK 0
7 *1470:CLK 0.000301154
8 *1471:CLK 0
9 *1831:X 0
10 *770:67 0.000481649
11 *770:49 0.000816182
12 *770:44 0.000211828
13 *770:19 0.00074609
14 *770:10 0.000613377
15 *770:5 0.000624061
16 *770:4 0.000537333
17 *1486:CLK *771:8 0
18 *1486:CLK *771:20 0
19 *1014:A *1461:CLK 0
20 *1015:B *1461:CLK 0
21 *1015:C *1461:CLK 0
22 *1254:B1 *1461:CLK 0
23 *1256:B *770:10 0
24 *1257:B *770:19 0
25 *1287:A *1470:CLK 0
26 *1287:A *770:19 0
27 *1292:A *770:19 0
28 *1295:A *770:10 0
29 *1295:A *770:19 0
30 *1295:B *770:5 0
31 *1295:B *770:10 0
32 *1296:A2 *770:5 0
33 *1296:A2 *770:10 0
34 *1296:B1 *770:49 0
35 *1299:B *1461:CLK 0
36 *1301:A *1461:CLK 0
37 *1328:A *1486:CLK 0
38 *1328:B *1486:CLK 0
39 *1329:B *1486:CLK 0
40 *1461:D *1461:CLK 0
41 *1475:D *770:10 0
42 *1476:D *1461:CLK 0
43 *1476:D *1478:CLK 0
44 *1831:A *770:5 0
45 *315:82 *1478:CLK 0
46 *315:87 *1461:CLK 0
47 *315:87 *1478:CLK 0
48 *315:87 *1486:CLK 0
49 *315:87 *770:49 0
50 *315:89 *1461:CLK 0
51 *315:93 *1461:CLK 0
52 *315:124 *1470:CLK 0
53 *315:124 *770:19 0
54 *316:24 *1486:CLK 0
55 *316:733 *770:19 0
56 *360:602 *1486:CLK 0
57 *593:11 *770:10 0
58 *603:124 *1470:CLK 0
59 *603:128 *1470:CLK 0
60 *603:130 *1470:CLK 0
61 *662:8 *770:19 0
62 *664:11 *770:5 0
63 *664:11 *770:44 0
64 *664:23 *770:44 0
65 *665:14 *1461:CLK 0
66 *680:7 *1461:CLK 0
*RES
1 *1831:X *770:4 9.3 
2 *770:4 *770:5 9.57143 
3 *770:5 *770:10 8.30357 
4 *770:10 *770:19 14.4464 
5 *770:19 *1471:CLK 9.3 
6 *770:19 *1470:CLK 25.05 
7 *770:10 *1462:CLK 13.8 
8 *770:5 *1475:CLK 9.3 
9 *770:4 *770:44 1.76786 
10 *770:44 *770:49 6.875 
11 *770:49 *1478:CLK 18.4429 
12 *770:49 *1486:CLK 24.5143 
13 *770:44 *770:67 0.535714 
14 *770:67 *1476:CLK 9.3 
15 *770:67 *1461:CLK 28.425 
*END

*D_NET *771 0.00816116
*CONN
*I *1508:CLK I *D sky130_fd_sc_hd__dfrtp_1
*I *1390:CLK I *D sky130_fd_sc_hd__dfxtp_1
*I *1487:CLK I *D sky130_fd_sc_hd__dfrtp_1
*I *1500:CLK I *D sky130_fd_sc_hd__dfrtp_1
*I *1505:CLK I *D sky130_fd_sc_hd__dfrtp_1
*I *1501:CLK I *D sky130_fd_sc_hd__dfstp_2
*I *1504:CLK I *D sky130_fd_sc_hd__dfrtp_1
*I *1507:CLK I *D sky130_fd_sc_hd__dfrtp_1
*I *1509:CLK I *D sky130_fd_sc_hd__dfrtp_1
*I *1477:CLK I *D sky130_fd_sc_hd__dfrtp_1
*I *1832:X O *D sky130_fd_sc_hd__clkbuf_2
*CAP
1 *1508:CLK 6.28885e-05
2 *1390:CLK 0.00068028
3 *1487:CLK 0
4 *1500:CLK 0.000320843
5 *1505:CLK 2.56688e-05
6 *1501:CLK 0
7 *1504:CLK 2.35297e-05
8 *1507:CLK 0
9 *1509:CLK 0.000236539
10 *1477:CLK 0.000338186
11 *1832:X 0.000347553
12 *771:72 0.000555256
13 *771:45 0.00062155
14 *771:40 0.000654343
15 *771:32 0.000445592
16 *771:30 0.000828646
17 *771:25 0.000420112
18 *771:23 0.000764615
19 *771:20 0.000648522
20 *771:8 0.00118704
21 uio_out[7] *1500:CLK 0
22 uio_out[7] *771:72 0
23 *806:A *1390:CLK 0
24 *807:C *1500:CLK 0
25 *876:SLEEP *1390:CLK 0
26 *1000:B *1390:CLK 0
27 *1000:B *1508:CLK 0
28 *1000:B *771:20 0
29 *1001:A *1390:CLK 0
30 *1303:A *1477:CLK 0
31 *1303:B *1477:CLK 0
32 *1328:B *1477:CLK 0
33 *1328:B *771:8 0
34 *1328:B *771:20 0
35 *1329:B *1477:CLK 0
36 *1329:B *771:20 0
37 *1365:B1 *771:40 0
38 *1365:B1 *771:45 0
39 *1365:B2 *1500:CLK 0
40 *1365:B2 *771:72 0
41 *1390:D *1390:CLK 0
42 *1486:CLK *771:8 0
43 *1486:CLK *771:20 0
44 *1486:D *771:20 0
45 *1487:D *771:20 0
46 *1500:D *1500:CLK 0
47 *1501:D *771:32 0
48 *1501:D *771:40 0
49 *1501:SET_B *771:32 0
50 *1507:D *1509:CLK 0
51 *1507:D *771:45 0
52 *1509:RESET_B *1509:CLK 0
53 *138:8 *1390:CLK 0
54 *138:8 *771:23 0
55 *360:434 *771:8 0
56 *577:12 *771:40 0
57 *584:9 *1509:CLK 0
58 *592:121 *1500:CLK 0
59 *592:132 *771:40 0
60 *592:134 *771:40 0
61 *592:140 *1509:CLK 0
62 *706:13 *771:40 0
63 *706:13 *771:45 0
64 *721:38 *1390:CLK 0
65 *745:14 *1390:CLK 0
66 *746:29 *1390:CLK 0
67 *751:17 *771:72 0
68 *752:87 *771:45 0
69 *752:98 *771:72 0
*RES
1 *1832:X *771:8 21.2107 
2 *771:8 *1477:CLK 20.858 
3 *771:8 *771:20 15.8929 
4 *771:20 *771:23 6.44643 
5 *771:23 *771:25 4.5 
6 *771:25 *771:30 8.89286 
7 *771:30 *771:32 4.23214 
8 *771:32 *771:40 14.375 
9 *771:40 *771:45 13.1607 
10 *771:45 *1509:CLK 18.9429 
11 *771:45 *1507:CLK 13.8 
12 *771:40 *1504:CLK 9.72857 
13 *771:32 *1501:CLK 9.3 
14 *771:30 *771:72 9.17857 
15 *771:72 *1505:CLK 14.3357 
16 *771:72 *1500:CLK 20.7107 
17 *771:25 *1487:CLK 9.3 
18 *771:23 *1390:CLK 28.6214 
19 *771:20 *1508:CLK 10.675 
*END

*D_NET *772 0.00624428
*CONN
*I *1408:CLK I *D sky130_fd_sc_hd__dfrtp_1
*I *1413:CLK I *D sky130_fd_sc_hd__dfrtp_1
*I *1402:CLK I *D sky130_fd_sc_hd__dfrtp_1
*I *1403:CLK I *D sky130_fd_sc_hd__dfrtp_1
*I *1406:CLK I *D sky130_fd_sc_hd__dfrtp_1
*I *1405:CLK I *D sky130_fd_sc_hd__dfrtp_1
*I *1429:CLK I *D sky130_fd_sc_hd__dfrtp_1
*I *1833:X O *D sky130_fd_sc_hd__clkbuf_2
*CAP
1 *1408:CLK 0
2 *1413:CLK 0.0004655
3 *1402:CLK 0
4 *1403:CLK 0.000222463
5 *1406:CLK 0.000471022
6 *1405:CLK 0.000165564
7 *1429:CLK 3.22476e-05
8 *1833:X 0.000857594
9 *772:30 0.00083937
10 *772:20 0.000320763
11 *772:18 0.000631851
12 *772:16 0.00043613
13 *772:15 0.000761077
14 *772:11 0.0010407
15 *905:B2 *772:11 0
16 *940:B2 *772:11 0
17 *1032:A *772:11 0
18 *1035:D *772:11 0
19 *1077:A1 *772:18 0
20 *1079:A *772:16 0
21 *1079:A *772:18 0
22 *1080:A2 *772:18 0
23 *1082:A *1405:CLK 0
24 *1088:A *1406:CLK 0
25 *1089:A2 *1406:CLK 0
26 *1095:A2 *772:11 0
27 *1095:B1 *772:11 0
28 *1110:B1 *1413:CLK 0
29 *1158:A *1405:CLK 0
30 *1403:D *772:18 0
31 *1403:D *772:20 0
32 *1406:D *1406:CLK 0
33 *1413:D *1413:CLK 0
34 *1429:RESET_B *1406:CLK 0
35 *252:14 *772:11 0
36 *603:276 *772:11 0
37 *603:276 *772:15 0
38 *603:285 *772:11 0
39 *622:20 *772:15 0
40 *622:20 *772:16 0
41 *624:10 *1413:CLK 0
42 *624:10 *1429:CLK 0
43 *624:10 *772:16 0
44 *624:10 *772:18 0
45 *624:10 *772:20 0
46 *625:21 *772:11 0
47 *627:27 *772:11 0
48 *629:30 *1413:CLK 0
49 *696:10 *1405:CLK 0
50 *696:10 *1406:CLK 0
51 *696:10 *772:30 0
*RES
1 *1833:X *772:11 36.925 
2 *772:11 *772:15 8.32143 
3 *772:15 *772:16 2.55357 
4 *772:16 *772:18 7.41071 
5 *772:18 *772:20 1.94643 
6 *772:20 *1429:CLK 14.5321 
7 *772:20 *772:30 8.73214 
8 *772:30 *1405:CLK 22.1214 
9 *772:30 *1406:CLK 19.1929 
10 *772:18 *1403:CLK 18.4429 
11 *772:16 *1402:CLK 13.8 
12 *772:15 *1413:CLK 24.0857 
13 *772:11 *1408:CLK 9.3 
*END

*D_NET *773 0.00494757
*CONN
*I *1393:CLK I *D sky130_fd_sc_hd__dfrtp_1
*I *1392:CLK I *D sky130_fd_sc_hd__dfrtp_1
*I *1414:CLK I *D sky130_fd_sc_hd__dfrtp_1
*I *1407:CLK I *D sky130_fd_sc_hd__dfrtp_1
*I *1401:CLK I *D sky130_fd_sc_hd__dfrtp_1
*I *1399:CLK I *D sky130_fd_sc_hd__dfrtp_1
*I *1400:CLK I *D sky130_fd_sc_hd__dfrtp_1
*I *1834:X O *D sky130_fd_sc_hd__clkbuf_2
*CAP
1 *1393:CLK 0.000468241
2 *1392:CLK 0
3 *1414:CLK 0
4 *1407:CLK 0.000243853
5 *1401:CLK 8.4707e-05
6 *1399:CLK 0
7 *1400:CLK 0.000293901
8 *1834:X 0
9 *773:65 0.000708886
10 *773:18 0.000724466
11 *773:16 0.000651676
12 *773:14 0.000463236
13 *773:12 0.000575467
14 *773:4 0.000733133
15 *1066:B *773:18 0
16 *1071:B1 *1400:CLK 0
17 *1071:B1 *773:18 0
18 *1090:B *1407:CLK 0
19 *1111:B *773:12 0
20 *1113:A2 *773:12 0
21 *1113:B1 *773:12 0
22 *1155:A1 *1400:CLK 0
23 *1399:D *1400:CLK 0
24 *1399:D *773:18 0
25 *1401:D *1401:CLK 0
26 *1401:D *773:18 0
27 *1407:D *1407:CLK 0
28 *1414:D *773:12 0
29 *1414:D *773:14 0
30 *315:584 *773:14 0
31 *316:148 *773:12 0
32 *316:164 *773:12 0
33 *360:62 *1407:CLK 0
34 *360:203 *1400:CLK 0
35 *360:203 *773:18 0
36 *603:422 *1393:CLK 0
37 *621:5 *1401:CLK 0
38 *627:8 *1407:CLK 0
39 *631:11 *1393:CLK 0
40 *635:20 *773:12 0
41 *649:23 *773:12 0
42 *651:21 *773:16 0
43 *651:21 *773:18 0
44 *651:29 *773:12 0
45 *651:29 *773:14 0
46 *692:23 *773:14 0
47 *692:23 *773:16 0
48 *692:23 *773:18 0
49 *694:25 *1393:CLK 0
50 *694:25 *773:65 0
*RES
1 *1834:X *773:4 9.3 
2 *773:4 *773:12 24.4464 
3 *773:12 *773:14 1.94643 
4 *773:14 *773:16 3.16071 
5 *773:16 *773:18 9.83929 
6 *773:18 *1400:CLK 20.1393 
7 *773:18 *1399:CLK 13.8 
8 *773:16 *1401:CLK 15.5679 
9 *773:14 *1407:CLK 19.0143 
10 *773:12 *1414:CLK 13.8 
11 *773:4 *773:65 5.05357 
12 *773:65 *1392:CLK 9.3 
13 *773:65 *1393:CLK 19.1036 
*END

*D_NET *774 0.00877781
*CONN
*I *1394:CLK I *D sky130_fd_sc_hd__dfrtp_1
*I *1423:CLK I *D sky130_fd_sc_hd__dfrtp_1
*I *1395:CLK I *D sky130_fd_sc_hd__dfrtp_1
*I *1396:CLK I *D sky130_fd_sc_hd__dfrtp_1
*I *1424:CLK I *D sky130_fd_sc_hd__dfrtp_1
*I *1415:CLK I *D sky130_fd_sc_hd__dfrtp_1
*I *1397:CLK I *D sky130_fd_sc_hd__dfrtp_1
*I *1398:CLK I *D sky130_fd_sc_hd__dfrtp_1
*I *1426:CLK I *D sky130_fd_sc_hd__dfrtp_1
*I *1425:CLK I *D sky130_fd_sc_hd__dfrtp_1
*I *1427:CLK I *D sky130_fd_sc_hd__dfrtp_1
*I *1428:CLK I *D sky130_fd_sc_hd__dfrtp_1
*I *1835:X O *D sky130_fd_sc_hd__clkbuf_2
*CAP
1 *1394:CLK 0
2 *1423:CLK 0.000101392
3 *1395:CLK 0
4 *1396:CLK 4.53482e-05
5 *1424:CLK 0.00021684
6 *1415:CLK 0.000105242
7 *1397:CLK 0
8 *1398:CLK 0
9 *1426:CLK 0
10 *1425:CLK 0.000272374
11 *1427:CLK 0
12 *1428:CLK 0.000528518
13 *1835:X 0.000403627
14 *774:90 0.00048161
15 *774:88 0.000315732
16 *774:85 0.000775041
17 *774:79 0.000799801
18 *774:42 0.000727995
19 *774:36 0.000619045
20 *774:22 0.000817748
21 *774:20 0.000347999
22 *774:17 0.000518588
23 *774:10 0.00073823
24 *774:6 0.000962684
25 *1049:A *774:85 0
26 *1049:B *774:79 0
27 *1050:B1 *774:79 0
28 *1053:A2 *774:85 0
29 *1054:A *774:90 0
30 *1056:A2 *774:90 0
31 *1060:A *774:17 0
32 *1062:B1 *774:17 0
33 *1065:A1 *774:20 0
34 *1065:A2 *774:20 0
35 *1148:A *1425:CLK 0
36 *1148:B *1425:CLK 0
37 *1149:B *1425:CLK 0
38 *1150:B *774:22 0
39 *1153:A *1428:CLK 0
40 *1153:B *1428:CLK 0
41 *1392:RESET_B *774:6 0
42 *1393:D *774:79 0
43 *1393:RESET_B *774:85 0
44 *1395:D *774:90 0
45 *1396:D *774:90 0
46 *1397:D *774:17 0
47 *1415:D *1415:CLK 0
48 *1426:D *1425:CLK 0
49 *1427:D *774:36 0
50 *1427:D *774:42 0
51 *1427:RESET_B *774:42 0
52 *1428:RESET_B *1428:CLK 0
53 *315:643 *774:10 0
54 *315:656 *1424:CLK 0
55 *315:656 *774:90 0
56 *315:672 *774:88 0
57 *315:672 *774:90 0
58 *316:203 *774:79 0
59 *316:235 *1428:CLK 0
60 *316:235 *774:20 0
61 *316:235 *774:22 0
62 *360:24 *774:6 0
63 *360:32 *774:10 0
64 *360:32 *774:17 0
65 *360:34 *774:17 0
66 *360:34 *774:20 0
67 *360:53 *1415:CLK 0
68 *360:283 *774:90 0
69 *603:377 *1428:CLK 0
70 *603:390 *1428:CLK 0
71 *603:422 *774:85 0
72 *636:8 *1415:CLK 0
73 *636:8 *774:10 0
74 *636:17 *774:6 0
75 *636:17 *774:10 0
76 *647:35 *774:6 0
77 *647:35 *774:10 0
78 *693:10 *1425:CLK 0
79 *693:10 *774:42 0
80 *694:17 *774:36 0
81 *694:25 *774:17 0
82 *695:12 *1428:CLK 0
*RES
1 *1835:X *774:6 23.0321 
2 *774:6 *774:10 7.64286 
3 *774:10 *774:17 10.8929 
4 *774:17 *774:20 9.48214 
5 *774:20 *774:22 2.85714 
6 *774:22 *1428:CLK 24.925 
7 *774:22 *774:36 7.91071 
8 *774:36 *1427:CLK 9.3 
9 *774:36 *774:42 9.57143 
10 *774:42 *1425:CLK 24.2643 
11 *774:42 *1426:CLK 9.3 
12 *774:20 *1398:CLK 13.8 
13 *774:17 *1397:CLK 9.3 
14 *774:10 *1415:CLK 15.9964 
15 *774:6 *774:79 9.14286 
16 *774:79 *774:85 21.2321 
17 *774:85 *774:88 6.75 
18 *774:88 *774:90 4.98214 
19 *774:90 *1424:CLK 18.5321 
20 *774:90 *1396:CLK 14.7464 
21 *774:88 *1395:CLK 13.8 
22 *774:85 *1423:CLK 11.4786 
23 *774:79 *1394:CLK 9.3 
*END

*D_NET *775 0.00420258
*CONN
*I *1449:CLK I *D sky130_fd_sc_hd__dfrtp_1
*I *1448:CLK I *D sky130_fd_sc_hd__dfrtp_1
*I *1421:CLK I *D sky130_fd_sc_hd__dfrtp_1
*I *1422:CLK I *D sky130_fd_sc_hd__dfrtp_1
*I *1447:CLK I *D sky130_fd_sc_hd__dfrtp_1
*I *1416:CLK I *D sky130_fd_sc_hd__dfrtp_1
*I *1446:CLK I *D sky130_fd_sc_hd__dfrtp_1
*I *1836:X O *D sky130_fd_sc_hd__clkbuf_2
*CAP
1 *1449:CLK 0.000268345
2 *1448:CLK 0.000234261
3 *1421:CLK 0
4 *1422:CLK 3.22476e-05
5 *1447:CLK 0
6 *1416:CLK 0.00032635
7 *1446:CLK 0.000127766
8 *1836:X 0
9 *775:54 0.000612326
10 *775:47 0.000219048
11 *775:37 0.000794846
12 *775:17 0.000346885
13 *775:15 0.000893274
14 *775:4 0.000347234
15 *951:C2 *1446:CLK 0
16 *1118:A *1416:CLK 0
17 *1119:B1 *1416:CLK 0
18 *1213:A *775:47 0
19 *1213:A *775:54 0
20 *1446:RESET_B *1416:CLK 0
21 *1447:D *775:15 0
22 *1447:D *775:37 0
23 *1448:D *1448:CLK 0
24 *1835:A *775:15 0
25 *315:680 *1416:CLK 0
26 *315:715 *1416:CLK 0
27 *316:963 *1416:CLK 0
28 *316:965 *1416:CLK 0
29 *316:995 *1416:CLK 0
30 *316:999 *1416:CLK 0
31 *316:1026 *1449:CLK 0
32 *316:1026 *775:54 0
33 *360:358 *1449:CLK 0
34 *603:659 *1449:CLK 0
35 *603:659 *775:54 0
36 *603:661 *775:54 0
37 *603:663 *775:54 0
38 *618:12 *1416:CLK 0
39 *618:12 *775:37 0
40 *619:7 *1448:CLK 0
41 *765:135 *1446:CLK 0
42 *765:136 *1446:CLK 0
*RES
1 *1836:X *775:4 9.3 
2 *775:4 *1446:CLK 21.0857 
3 *775:4 *775:15 4.64286 
4 *775:15 *775:17 0.428571 
5 *775:17 *1416:CLK 25.7107 
6 *775:17 *1447:CLK 9.3 
7 *775:15 *775:37 18.3214 
8 *775:37 *1422:CLK 14.5321 
9 *775:37 *775:47 2.48214 
10 *775:47 *1421:CLK 13.8 
11 *775:47 *775:54 2.55357 
12 *775:54 *1448:CLK 18.9786 
13 *775:54 *1449:CLK 19.8357 
*END

*D_NET *776 0.00553464
*CONN
*I *1484:CLK I *D sky130_fd_sc_hd__dfrtp_1
*I *1485:CLK I *D sky130_fd_sc_hd__dfrtp_1
*I *1482:CLK I *D sky130_fd_sc_hd__dfrtp_1
*I *1460:CLK I *D sky130_fd_sc_hd__dfrtp_1
*I *1480:CLK I *D sky130_fd_sc_hd__dfrtp_1
*I *1479:CLK I *D sky130_fd_sc_hd__dfrtp_1
*I *1837:X O *D sky130_fd_sc_hd__clkbuf_2
*CAP
1 *1484:CLK 3.50807e-05
2 *1485:CLK 0.000202416
3 *1482:CLK 0
4 *1460:CLK 0.000382893
5 *1480:CLK 6.05355e-05
6 *1479:CLK 0.000344236
7 *1837:X 0
8 *776:57 0.000950752
9 *776:43 0.000916574
10 *776:34 0.000896529
11 *776:9 0.000920038
12 *776:4 0.000825585
13 *1460:CLK *1481:CLK 0
14 *1460:CLK *777:5 0
15 *776:34 *1481:CLK 0
16 *776:43 *1481:CLK 0
17 *776:43 *777:22 0
18 *776:57 *777:22 0
19 *776:57 *777:37 0
20 *928:B2 *1479:CLK 0
21 *1306:A *1479:CLK 0
22 *1306:A *1480:CLK 0
23 *1306:A *776:9 0
24 *1308:B1 *1479:CLK 0
25 *1317:B *776:43 0
26 *1319:A *776:43 0
27 *1319:A *776:57 0
28 *1320:A1 *776:57 0
29 *1325:A *1485:CLK 0
30 *1325:A *776:57 0
31 *1326:A2 *1484:CLK 0
32 *1480:RESET_B *776:9 0
33 *1484:D *776:57 0
34 *1484:RESET_B *776:57 0
35 *1485:D *1485:CLK 0
36 *1838:A *776:34 0
37 *219:20 *1485:CLK 0
38 *242:20 *776:9 0
39 *242:20 *776:43 0
40 *316:823 *1479:CLK 0
41 *316:884 *776:57 0
42 *603:575 *1460:CLK 0
43 *669:10 *776:9 0
44 *670:9 *1460:CLK 0
45 *670:15 *1460:CLK 0
46 *670:24 *776:34 0
47 *671:34 *776:34 0
48 *671:34 *776:43 0
49 *679:34 *1479:CLK 0
*RES
1 *1837:X *776:4 9.3 
2 *776:4 *776:9 20 
3 *776:9 *1479:CLK 25.8179 
4 *776:9 *1480:CLK 10.6929 
5 *776:4 *776:34 11.3571 
6 *776:34 *1460:CLK 21.7286 
7 *776:34 *776:43 4.67857 
8 *776:43 *1482:CLK 13.8 
9 *776:43 *776:57 19.75 
10 *776:57 *1485:CLK 22.6571 
11 *776:57 *1484:CLK 10.0321 
*END

*D_NET *777 0.00691363
*CONN
*I *1496:CLK I *D sky130_fd_sc_hd__dfxtp_1
*I *1389:CLK I *D sky130_fd_sc_hd__dfxtp_1
*I *1383:CLK I *D sky130_fd_sc_hd__dfxtp_1
*I *1391:CLK I *D sky130_fd_sc_hd__dfstp_2
*I *1384:CLK I *D sky130_fd_sc_hd__dfxtp_1
*I *1483:CLK I *D sky130_fd_sc_hd__dfrtp_1
*I *1459:CLK I *D sky130_fd_sc_hd__dfrtp_1
*I *1481:CLK I *D sky130_fd_sc_hd__dfrtp_1
*I *1838:X O *D sky130_fd_sc_hd__clkbuf_2
*CAP
1 *1496:CLK 0.000388574
2 *1389:CLK 0.000112434
3 *1383:CLK 0
4 *1391:CLK 0.00030242
5 *1384:CLK 0.000417984
6 *1483:CLK 0
7 *1459:CLK 0.000457332
8 *1481:CLK 0.000315754
9 *1838:X 2.26741e-05
10 *777:57 0.000776651
11 *777:53 0.000277212
12 *777:50 0.00084065
13 *777:46 0.00111251
14 *777:37 0.000432984
15 *777:22 0.000895821
16 *777:5 0.000560622
17 *822:SLEEP *1496:CLK 0
18 *870:A *1496:CLK 0
19 *904:A *1389:CLK 0
20 *975:A2 *1496:CLK 0
21 *975:B2 *1496:CLK 0
22 *975:B2 *777:46 0
23 *976:A *1496:CLK 0
24 *976:B *1496:CLK 0
25 *998:B1 *1496:CLK 0
26 *998:B1 *777:46 0
27 *1002:A *1391:CLK 0
28 *1007:A *1481:CLK 0
29 *1315:B *777:22 0
30 *1315:B *777:37 0
31 *1318:A *777:46 0
32 *1319:A *777:37 0
33 *1319:B *777:37 0
34 *1383:D *777:53 0
35 *1384:D *1384:CLK 0
36 *1389:D *1496:CLK 0
37 *1459:RESET_B *1459:CLK 0
38 *1460:CLK *1481:CLK 0
39 *1460:CLK *777:5 0
40 *1482:D *777:22 0
41 *1483:D *777:37 0
42 *219:20 *1391:CLK 0
43 *242:20 *1481:CLK 0
44 *242:20 *777:37 0
45 *242:20 *777:46 0
46 *248:13 *777:50 0
47 *299:8 *1391:CLK 0
48 *592:80 *1496:CLK 0
49 *620:27 *777:37 0
50 *620:27 *777:46 0
51 *670:24 *1481:CLK 0
52 *671:5 *1459:CLK 0
53 *671:34 *777:22 0
54 *747:6 *1391:CLK 0
55 *776:34 *1481:CLK 0
56 *776:43 *1481:CLK 0
57 *776:43 *777:22 0
58 *776:57 *777:22 0
59 *776:57 *777:37 0
*RES
1 *1838:X *777:5 9.83571 
2 *777:5 *1481:CLK 25.1214 
3 *777:5 *777:22 9.48214 
4 *777:22 *1459:CLK 23.2821 
5 *777:22 *777:37 5.03571 
6 *777:37 *1483:CLK 13.8 
7 *777:37 *777:46 9.48214 
8 *777:46 *777:50 15.4643 
9 *777:50 *777:53 9.14286 
10 *777:53 *777:57 1.375 
11 *777:57 *1384:CLK 18.1929 
12 *777:57 *1391:CLK 25.1036 
13 *777:53 *1383:CLK 9.3 
14 *777:50 *1389:CLK 16.3536 
15 *777:46 *1496:CLK 26.8179 
*END

*D_NET *778 0.0050175
*CONN
*I *1418:CLK I *D sky130_fd_sc_hd__dfrtp_1
*I *1451:CLK I *D sky130_fd_sc_hd__dfrtp_1
*I *1419:CLK I *D sky130_fd_sc_hd__dfrtp_1
*I *1452:CLK I *D sky130_fd_sc_hd__dfrtp_1
*I *1420:CLK I *D sky130_fd_sc_hd__dfrtp_1
*I *1450:CLK I *D sky130_fd_sc_hd__dfrtp_1
*I *1417:CLK I *D sky130_fd_sc_hd__dfrtp_1
*I *1454:CLK I *D sky130_fd_sc_hd__dfrtp_1
*I *1839:X O *D sky130_fd_sc_hd__clkbuf_2
*CAP
1 *1418:CLK 8.25679e-05
2 *1451:CLK 0
3 *1419:CLK 0.000286516
4 *1452:CLK 0.000202783
5 *1420:CLK 0.000351001
6 *1450:CLK 0
7 *1417:CLK 0
8 *1454:CLK 9.50347e-05
9 *1839:X 0
10 *778:49 0.000799467
11 *778:39 0.000723201
12 *778:31 0.000484284
13 *778:26 0.000665289
14 *778:20 0.000473077
15 *778:17 0.000535926
16 *778:4 0.000318353
17 *1454:CLK *779:8 0
18 *1122:A *778:26 0
19 *1122:B *778:26 0
20 *1125:A2 *1418:CLK 0
21 *1125:B1 *778:20 0
22 *1127:A *1419:CLK 0
23 *1128:A2 *1419:CLK 0
24 *1219:B *1420:CLK 0
25 *1221:A *1420:CLK 0
26 *1221:B *1420:CLK 0
27 *1224:A *778:26 0
28 *1233:A1 *1418:CLK 0
29 *1233:A1 *778:17 0
30 *1233:A2 *1454:CLK 0
31 *1233:A2 *778:17 0
32 *1418:D *1418:CLK 0
33 *1450:D *1420:CLK 0
34 *1450:RESET_B *778:31 0
35 *1450:RESET_B *778:39 0
36 *1454:D *778:17 0
37 *315:742 *778:20 0
38 *315:747 *778:20 0
39 *315:861 *1419:CLK 0
40 *315:867 *1419:CLK 0
41 *315:867 *778:49 0
42 *316:956 *778:20 0
43 *316:956 *778:26 0
44 *316:961 *778:26 0
45 *316:1038 *1420:CLK 0
46 *360:364 *1419:CLK 0
47 *360:668 *778:20 0
48 *603:540 *778:31 0
49 *606:17 *1420:CLK 0
50 *609:26 *1454:CLK 0
51 *610:14 *778:20 0
52 *638:5 *778:31 0
53 *638:9 *778:31 0
54 *639:11 *1419:CLK 0
55 *639:18 *778:26 0
56 *663:26 *778:20 0
57 *663:26 *778:26 0
*RES
1 *1839:X *778:4 9.3 
2 *778:4 *1454:CLK 20.4786 
3 *778:4 *778:17 4.66071 
4 *778:17 *778:20 9.78571 
5 *778:20 *778:26 10.0179 
6 *778:26 *1417:CLK 9.3 
7 *778:26 *778:31 8.75 
8 *778:31 *1450:CLK 9.3 
9 *778:31 *778:39 5.85714 
10 *778:39 *1420:CLK 21.3 
11 *778:39 *778:49 7.10714 
12 *778:49 *1452:CLK 18.0321 
13 *778:49 *1419:CLK 20.0679 
14 *778:20 *1451:CLK 13.8 
15 *778:17 *1418:CLK 11.0857 
*END

*D_NET *779 0.00812955
*CONN
*I *1456:CLK I *D sky130_fd_sc_hd__dfrtp_1
*I *1387:CLK I *D sky130_fd_sc_hd__dfxtp_1
*I *1386:CLK I *D sky130_fd_sc_hd__dfxtp_1
*I *1385:CLK I *D sky130_fd_sc_hd__dfxtp_1
*I *1388:CLK I *D sky130_fd_sc_hd__dfxtp_1
*I *1457:CLK I *D sky130_fd_sc_hd__dfrtp_1
*I *1458:CLK I *D sky130_fd_sc_hd__dfrtp_1
*I *1453:CLK I *D sky130_fd_sc_hd__dfrtp_1
*I *1455:CLK I *D sky130_fd_sc_hd__dfrtp_1
*I *1498:CLK I *D sky130_fd_sc_hd__dfxtp_1
*I *1497:CLK I *D sky130_fd_sc_hd__dfxtp_1
*I *1499:CLK I *D sky130_fd_sc_hd__dfxtp_1
*I *1840:X O *D sky130_fd_sc_hd__clkbuf_2
*CAP
1 *1456:CLK 8.17123e-05
2 *1387:CLK 0.000269181
3 *1386:CLK 0
4 *1385:CLK 0
5 *1388:CLK 4.53482e-05
6 *1457:CLK 0
7 *1458:CLK 6.50276e-05
8 *1453:CLK 0.000138142
9 *1455:CLK 2.56688e-05
10 *1498:CLK 0
11 *1497:CLK 0.000408108
12 *1499:CLK 4.53482e-05
13 *1840:X 0.000679981
14 *779:110 0.000378902
15 *779:103 0.000248543
16 *779:90 0.00048777
17 *779:67 0.000315643
18 *779:65 0.000121912
19 *779:64 0.000982687
20 *779:50 0.000794421
21 *779:47 0.000341258
22 *779:20 0.000865534
23 *779:15 0.000703011
24 *779:8 0.00113136
25 *826:A2 *1387:CLK 0
26 *856:C *1497:CLK 0
27 *857:A *1497:CLK 0
28 *872:A *1497:CLK 0
29 *872:A *779:20 0
30 *873:A1 *1497:CLK 0
31 *873:A1 *1499:CLK 0
32 *873:A2 *779:20 0
33 *874:A2 *1497:CLK 0
34 *875:B1 *1497:CLK 0
35 *985:A2 *779:103 0
36 *985:A2 *779:110 0
37 *990:A2 *1387:CLK 0
38 *993:A1 *1387:CLK 0
39 *993:A2 *1387:CLK 0
40 *1232:B *779:8 0
41 *1239:B *1456:CLK 0
42 *1240:A *779:67 0
43 *1240:A *779:90 0
44 *1240:B *1456:CLK 0
45 *1241:A *779:67 0
46 *1242:A1 *1453:CLK 0
47 *1242:A1 *779:67 0
48 *1242:B1 *779:90 0
49 *1454:CLK *779:8 0
50 *1454:D *779:8 0
51 *1498:D *779:15 0
52 *173:55 *1497:CLK 0
53 *178:14 *779:20 0
54 *178:14 *779:103 0
55 *315:759 *779:8 0
56 *315:814 *779:8 0
57 *316:932 *779:47 0
58 *316:935 *779:50 0
59 *316:940 *779:50 0
60 *592:57 *1497:CLK 0
61 *596:24 *1497:CLK 0
62 *598:24 *779:20 0
63 *598:31 *779:20 0
64 *599:53 *1387:CLK 0
65 *599:64 *1387:CLK 0
66 *602:10 *1387:CLK 0
67 *602:10 *779:103 0
68 *602:10 *779:110 0
69 *609:26 *779:8 0
70 *652:9 *1455:CLK 0
71 *663:26 *1456:CLK 0
72 *663:26 *779:8 0
73 *663:26 *779:15 0
74 *663:26 *779:47 0
75 *663:26 *779:50 0
76 *674:14 *1458:CLK 0
77 *677:11 *779:64 0
78 *765:127 *779:8 0
*RES
1 *1840:X *779:8 28.8804 
2 *779:8 *779:15 10.9196 
3 *779:15 *779:20 13.3393 
4 *779:20 *1499:CLK 14.7464 
5 *779:20 *1497:CLK 22.9786 
6 *779:15 *1498:CLK 9.3 
7 *779:8 *779:47 8.20536 
8 *779:47 *779:50 6.75 
9 *779:50 *1455:CLK 14.3357 
10 *779:50 *779:64 9.2452 
11 *779:64 *779:65 0.276786 
12 *779:65 *779:67 2.55357 
13 *779:67 *1453:CLK 16.8893 
14 *779:67 *1458:CLK 15.1571 
15 *779:65 *1457:CLK 13.8 
16 *779:64 *779:90 6.95536 
17 *779:90 *1388:CLK 14.7464 
18 *779:90 *779:103 3.21429 
19 *779:103 *1385:CLK 13.8 
20 *779:103 *779:110 2.55357 
21 *779:110 *1386:CLK 13.8 
22 *779:110 *1387:CLK 19.8536 
23 *779:47 *1456:CLK 11.0679 
*END
