*SPEF "ieee 1481-1999"
*DESIGN "tt_um_dusterthefirst_project"
*DATE "11:11:11 Fri 11 11, 1111"
*VENDOR "OpenRCX"
*PROGRAM "Parallel Extraction"
*VERSION "1.0"
*DESIGN_FLOW "NAME_SCOPE LOCAL" "PIN_CAP NONE"
*DIVIDER /
*DELIMITER :
*BUS_DELIMITER []
*T_UNIT 1 NS
*C_UNIT 1 PF
*R_UNIT 1 OHM
*L_UNIT 1 HENRY

*NAME_MAP
*1 _0000_
*2 _0001_
*3 _0002_
*4 _0003_
*5 _0004_
*6 _0005_
*7 _0006_
*8 _0007_
*9 _0008_
*10 _0009_
*11 _0010_
*12 _0011_
*13 _0012_
*14 _0013_
*15 _0014_
*16 _0015_
*17 _0016_
*18 _0017_
*19 _0018_
*20 _0019_
*21 _0020_
*22 _0021_
*23 _0022_
*24 _0023_
*25 _0024_
*26 _0025_
*27 _0026_
*28 _0027_
*29 _0028_
*30 _0029_
*31 _0030_
*32 _0031_
*33 _0032_
*34 _0033_
*35 _0034_
*36 _0035_
*37 _0036_
*38 _0037_
*39 _0038_
*40 _0039_
*41 _0040_
*42 _0041_
*43 _0042_
*44 _0043_
*45 _0044_
*46 _0045_
*47 _0046_
*48 _0047_
*49 _0048_
*50 _0049_
*51 _0050_
*52 _0051_
*53 _0052_
*54 _0053_
*55 _0054_
*56 _0055_
*57 _0056_
*58 _0057_
*59 _0058_
*60 _0059_
*61 _0060_
*62 _0061_
*63 _0062_
*64 _0063_
*65 _0064_
*66 _0065_
*67 _0066_
*68 _0067_
*69 _0068_
*70 _0069_
*71 _0070_
*72 _0071_
*73 _0072_
*74 _0073_
*75 _0074_
*76 _0075_
*77 _0076_
*78 _0077_
*79 _0078_
*80 _0079_
*81 _0080_
*82 _0081_
*83 _0082_
*84 _0083_
*85 _0084_
*86 _0085_
*87 _0086_
*88 _0087_
*89 _0088_
*90 _0089_
*91 _0090_
*92 _0091_
*93 _0092_
*94 _0093_
*95 _0094_
*96 _0095_
*97 _0096_
*98 _0097_
*99 _0098_
*100 _0099_
*101 _0100_
*102 _0101_
*103 _0102_
*104 _0103_
*105 _0104_
*106 _0105_
*107 _0106_
*108 _0107_
*109 _0108_
*110 _0109_
*111 _0110_
*112 _0111_
*113 _0112_
*114 _0113_
*115 _0114_
*116 _0115_
*117 _0116_
*118 _0117_
*119 _0118_
*120 _0119_
*121 _0120_
*122 _0121_
*123 _0122_
*124 _0123_
*125 _0124_
*126 _0125_
*127 _0126_
*128 _0127_
*129 _0128_
*130 _0129_
*131 _0130_
*132 _0131_
*133 _0132_
*134 _0133_
*135 _0134_
*136 _0135_
*137 _0136_
*138 _0137_
*139 _0138_
*140 _0139_
*141 _0140_
*142 _0141_
*143 _0142_
*144 _0143_
*145 _0144_
*146 _0145_
*147 _0146_
*148 _0147_
*149 _0148_
*150 _0149_
*151 _0150_
*152 _0151_
*153 _0152_
*154 _0153_
*155 _0154_
*156 _0155_
*157 _0156_
*158 _0157_
*159 _0158_
*160 _0159_
*161 _0160_
*162 _0161_
*163 _0162_
*164 _0163_
*165 _0164_
*166 _0165_
*167 _0166_
*168 _0167_
*169 _0168_
*170 _0169_
*171 _0170_
*172 _0171_
*173 _0172_
*174 _0173_
*175 _0174_
*176 _0175_
*177 _0176_
*178 _0177_
*179 _0178_
*180 _0179_
*181 _0180_
*182 _0181_
*183 _0182_
*184 _0183_
*185 _0184_
*186 _0185_
*187 _0186_
*188 _0187_
*189 _0188_
*190 _0189_
*191 _0190_
*192 _0191_
*193 _0192_
*194 _0193_
*195 _0194_
*196 _0195_
*197 _0196_
*198 _0197_
*199 _0198_
*200 _0199_
*201 _0200_
*202 _0201_
*203 _0202_
*204 _0203_
*205 _0204_
*206 _0205_
*207 _0206_
*208 _0207_
*209 _0208_
*210 _0209_
*211 _0210_
*212 _0211_
*213 _0212_
*214 _0213_
*215 _0214_
*216 _0215_
*217 _0216_
*218 _0217_
*219 _0218_
*220 _0219_
*221 _0220_
*222 _0221_
*223 _0222_
*224 _0223_
*225 _0224_
*226 _0225_
*227 _0226_
*228 _0227_
*229 _0228_
*230 _0229_
*231 _0230_
*232 _0231_
*233 _0232_
*234 _0233_
*235 _0234_
*236 _0235_
*237 _0236_
*238 _0237_
*239 _0238_
*240 _0239_
*241 _0240_
*242 _0241_
*243 _0242_
*244 _0243_
*245 _0244_
*246 _0245_
*247 _0246_
*248 _0247_
*249 _0248_
*250 _0249_
*251 _0250_
*252 _0251_
*253 _0252_
*254 _0253_
*255 _0254_
*256 _0255_
*257 _0256_
*258 _0257_
*259 _0258_
*260 _0259_
*261 _0260_
*262 _0261_
*263 _0262_
*264 _0263_
*265 _0264_
*266 _0265_
*267 _0266_
*268 _0267_
*269 _0268_
*270 _0269_
*271 _0270_
*272 _0271_
*273 _0272_
*274 _0273_
*275 _0274_
*276 _0275_
*277 _0276_
*278 _0277_
*279 _0278_
*280 _0279_
*281 _0280_
*282 _0281_
*283 _0282_
*284 _0283_
*285 _0284_
*286 _0285_
*287 _0286_
*288 _0287_
*289 _0288_
*290 _0289_
*291 _0290_
*292 _0291_
*293 _0292_
*294 _0293_
*295 _0294_
*296 _0295_
*297 _0296_
*298 _0297_
*299 _0298_
*300 _0299_
*301 _0300_
*302 _0301_
*303 _0302_
*304 _0303_
*305 _0304_
*306 _0305_
*307 _0306_
*308 _0307_
*309 _0308_
*310 _0309_
*311 _0310_
*312 _0311_
*313 _0312_
*314 _0313_
*315 _0314_
*316 _0315_
*317 _0316_
*318 _0317_
*319 _0318_
*320 _0319_
*321 _0320_
*322 _0321_
*323 _0322_
*324 _0323_
*325 _0324_
*326 _0325_
*327 _0326_
*328 _0327_
*329 _0328_
*330 _0329_
*331 _0330_
*332 _0331_
*333 _0332_
*334 _0333_
*335 _0334_
*336 _0335_
*337 _0336_
*338 _0337_
*339 _0338_
*340 _0339_
*341 _0340_
*342 _0341_
*343 _0342_
*344 _0343_
*345 _0344_
*346 _0345_
*347 _0346_
*348 _0347_
*349 _0348_
*350 _0349_
*351 _0350_
*352 _0351_
*353 _0352_
*354 _0353_
*355 _0354_
*356 _0355_
*357 _0356_
*358 _0357_
*359 _0358_
*360 _0359_
*361 _0360_
*362 _0361_
*363 _0362_
*364 _0363_
*365 _0364_
*366 _0365_
*367 _0366_
*368 _0367_
*369 _0368_
*370 _0369_
*371 _0370_
*372 _0371_
*373 _0372_
*374 _0373_
*375 _0374_
*376 _0375_
*377 _0376_
*378 _0377_
*379 _0378_
*380 _0379_
*381 _0380_
*382 _0381_
*383 _0382_
*384 _0383_
*385 _0384_
*386 _0385_
*387 _0386_
*388 _0387_
*389 _0388_
*390 _0389_
*391 _0390_
*392 _0391_
*393 _0392_
*394 _0393_
*395 _0394_
*396 _0395_
*397 _0396_
*398 _0397_
*399 _0398_
*400 _0399_
*401 _0400_
*402 _0401_
*403 _0402_
*404 _0403_
*405 _0404_
*406 _0405_
*407 _0406_
*408 _0407_
*409 _0408_
*410 _0409_
*411 _0410_
*412 _0411_
*413 _0412_
*414 _0413_
*415 _0414_
*416 _0415_
*417 _0416_
*418 _0417_
*419 _0418_
*420 _0419_
*421 _0420_
*422 _0421_
*423 _0422_
*424 _0423_
*425 _0424_
*426 _0425_
*427 _0426_
*428 _0427_
*429 _0428_
*430 _0429_
*431 _0430_
*432 _0431_
*433 _0432_
*434 _0433_
*435 _0434_
*436 _0435_
*437 _0436_
*438 _0437_
*439 _0438_
*440 _0439_
*441 _0440_
*442 _0441_
*443 _0442_
*444 _0443_
*445 _0444_
*446 _0445_
*447 _0446_
*448 _0447_
*449 _0448_
*450 _0449_
*451 _0450_
*452 _0451_
*453 _0452_
*454 clk
*455 data_multiplex\.reset_n
*456 data_multiplex\.room_temp[0]
*457 data_multiplex\.room_temp[10]
*458 data_multiplex\.room_temp[11]
*459 data_multiplex\.room_temp[12]
*460 data_multiplex\.room_temp[13]
*461 data_multiplex\.room_temp[14]
*462 data_multiplex\.room_temp[15]
*463 data_multiplex\.room_temp[1]
*464 data_multiplex\.room_temp[2]
*465 data_multiplex\.room_temp[3]
*466 data_multiplex\.room_temp[4]
*467 data_multiplex\.room_temp[5]
*468 data_multiplex\.room_temp[6]
*469 data_multiplex\.room_temp[7]
*470 data_multiplex\.room_temp[8]
*471 data_multiplex\.room_temp[9]
*472 data_multiplex\.serial_decode\.constant[0]
*473 data_multiplex\.serial_decode\.constant[10]
*474 data_multiplex\.serial_decode\.constant[11]
*475 data_multiplex\.serial_decode\.constant[12]
*476 data_multiplex\.serial_decode\.constant[13]
*477 data_multiplex\.serial_decode\.constant[14]
*478 data_multiplex\.serial_decode\.constant[15]
*479 data_multiplex\.serial_decode\.constant[16]
*480 data_multiplex\.serial_decode\.constant[17]
*481 data_multiplex\.serial_decode\.constant[18]
*482 data_multiplex\.serial_decode\.constant[19]
*483 data_multiplex\.serial_decode\.constant[1]
*484 data_multiplex\.serial_decode\.constant[20]
*485 data_multiplex\.serial_decode\.constant[21]
*486 data_multiplex\.serial_decode\.constant[22]
*487 data_multiplex\.serial_decode\.constant[23]
*488 data_multiplex\.serial_decode\.constant[24]
*489 data_multiplex\.serial_decode\.constant[25]
*490 data_multiplex\.serial_decode\.constant[26]
*491 data_multiplex\.serial_decode\.constant[27]
*492 data_multiplex\.serial_decode\.constant[28]
*493 data_multiplex\.serial_decode\.constant[29]
*494 data_multiplex\.serial_decode\.constant[2]
*495 data_multiplex\.serial_decode\.constant[30]
*496 data_multiplex\.serial_decode\.constant[31]
*497 data_multiplex\.serial_decode\.constant[3]
*498 data_multiplex\.serial_decode\.constant[4]
*499 data_multiplex\.serial_decode\.constant[5]
*500 data_multiplex\.serial_decode\.constant[6]
*501 data_multiplex\.serial_decode\.constant[7]
*502 data_multiplex\.serial_decode\.constant[8]
*503 data_multiplex\.serial_decode\.constant[9]
*504 data_multiplex\.serial_decode\.data_validate\.preamble[0]
*505 data_multiplex\.serial_decode\.data_validate\.preamble[10]
*506 data_multiplex\.serial_decode\.data_validate\.preamble[11]
*507 data_multiplex\.serial_decode\.data_validate\.preamble[12]
*508 data_multiplex\.serial_decode\.data_validate\.preamble[13]
*509 data_multiplex\.serial_decode\.data_validate\.preamble[14]
*510 data_multiplex\.serial_decode\.data_validate\.preamble[15]
*511 data_multiplex\.serial_decode\.data_validate\.preamble[16]
*512 data_multiplex\.serial_decode\.data_validate\.preamble[17]
*513 data_multiplex\.serial_decode\.data_validate\.preamble[18]
*514 data_multiplex\.serial_decode\.data_validate\.preamble[19]
*515 data_multiplex\.serial_decode\.data_validate\.preamble[1]
*516 data_multiplex\.serial_decode\.data_validate\.preamble[20]
*517 data_multiplex\.serial_decode\.data_validate\.preamble[21]
*518 data_multiplex\.serial_decode\.data_validate\.preamble[22]
*519 data_multiplex\.serial_decode\.data_validate\.preamble[23]
*520 data_multiplex\.serial_decode\.data_validate\.preamble[24]
*521 data_multiplex\.serial_decode\.data_validate\.preamble[25]
*522 data_multiplex\.serial_decode\.data_validate\.preamble[26]
*523 data_multiplex\.serial_decode\.data_validate\.preamble[27]
*524 data_multiplex\.serial_decode\.data_validate\.preamble[28]
*525 data_multiplex\.serial_decode\.data_validate\.preamble[29]
*526 data_multiplex\.serial_decode\.data_validate\.preamble[2]
*527 data_multiplex\.serial_decode\.data_validate\.preamble[30]
*528 data_multiplex\.serial_decode\.data_validate\.preamble[31]
*529 data_multiplex\.serial_decode\.data_validate\.preamble[3]
*530 data_multiplex\.serial_decode\.data_validate\.preamble[4]
*531 data_multiplex\.serial_decode\.data_validate\.preamble[5]
*532 data_multiplex\.serial_decode\.data_validate\.preamble[6]
*533 data_multiplex\.serial_decode\.data_validate\.preamble[7]
*534 data_multiplex\.serial_decode\.data_validate\.preamble[8]
*535 data_multiplex\.serial_decode\.data_validate\.preamble[9]
*536 data_multiplex\.serial_decode\.data_validate\.type_2[0]
*537 data_multiplex\.serial_decode\.data_validate\.type_2[10]
*538 data_multiplex\.serial_decode\.data_validate\.type_2[11]
*539 data_multiplex\.serial_decode\.data_validate\.type_2[12]
*540 data_multiplex\.serial_decode\.data_validate\.type_2[13]
*541 data_multiplex\.serial_decode\.data_validate\.type_2[14]
*542 data_multiplex\.serial_decode\.data_validate\.type_2[15]
*543 data_multiplex\.serial_decode\.data_validate\.type_2[1]
*544 data_multiplex\.serial_decode\.data_validate\.type_2[2]
*545 data_multiplex\.serial_decode\.data_validate\.type_2[3]
*546 data_multiplex\.serial_decode\.data_validate\.type_2[4]
*547 data_multiplex\.serial_decode\.data_validate\.type_2[5]
*548 data_multiplex\.serial_decode\.data_validate\.type_2[6]
*549 data_multiplex\.serial_decode\.data_validate\.type_2[7]
*550 data_multiplex\.serial_decode\.data_validate\.type_2[8]
*551 data_multiplex\.serial_decode\.data_validate\.type_2[9]
*552 data_multiplex\.serial_decode\.preamble_or_data
*553 data_multiplex\.serial_decode\.shift_register[96]
*554 ena
*555 input_edge_detect\.previous_in
*556 rst_n
*557 state_machine\.state[0]
*558 state_machine\.state[1]
*559 state_machine\.state[2]
*560 state_machine\.state[3]
*561 state_machine\.timer[0]
*562 state_machine\.timer[1]
*563 state_machine\.timer[2]
*564 state_machine\.timer[3]
*565 ui_in[0]
*566 ui_in[1]
*567 ui_in[2]
*568 ui_in[3]
*569 ui_in[4]
*570 ui_in[5]
*571 ui_in[6]
*572 ui_in[7]
*573 uio_in[0]
*574 uio_in[1]
*575 uio_in[2]
*576 uio_in[3]
*577 uio_in[4]
*578 uio_in[5]
*579 uio_in[6]
*580 uio_in[7]
*581 uio_oe[0]
*582 uio_oe[1]
*583 uio_oe[2]
*584 uio_oe[3]
*585 uio_oe[4]
*586 uio_oe[5]
*587 uio_oe[6]
*588 uio_oe[7]
*589 uio_out[0]
*590 uio_out[1]
*591 uio_out[2]
*592 uio_out[3]
*593 uio_out[4]
*594 uio_out[5]
*595 uio_out[6]
*596 uio_out[7]
*597 uo_out[0]
*598 uo_out[1]
*599 uo_out[2]
*600 uo_out[3]
*601 uo_out[4]
*602 uo_out[5]
*603 uo_out[6]
*604 uo_out[7]
*607 clknet_0_clk
*608 clknet_3_0__leaf_clk
*609 clknet_3_1__leaf_clk
*610 clknet_3_2__leaf_clk
*611 clknet_3_3__leaf_clk
*612 clknet_3_4__leaf_clk
*613 clknet_3_5__leaf_clk
*614 clknet_3_6__leaf_clk
*615 clknet_3_7__leaf_clk
*616 _0453_
*617 _0454_
*618 _0455_
*619 _0456_
*620 _0457_
*621 _0458_
*622 _0459_
*623 _0460_
*624 _0461_
*625 _0462_
*626 _0463_
*627 _0464_
*628 _0465_
*629 _0466_
*630 _0467_
*631 _0468_
*632 _0469_
*633 _0470_
*634 _0471_
*635 _0472_
*636 _0473_
*637 _0474_
*638 _0475_
*639 _0476_
*640 _0477_
*641 _0478_
*642 _0479_
*643 _0480_
*644 _0481_
*645 _0482_
*646 _0483_
*647 _0484_
*648 _0485_
*649 _0486_
*650 _0487_
*651 _0488_
*652 _0489_
*653 _0490_
*654 _0491_
*655 _0492_
*656 _0493_
*657 _0494_
*658 _0495_
*659 _0496_
*660 _0497_
*661 _0498_
*662 _0499_
*663 _0500_
*664 _0501_
*665 _0502_
*666 _0503_
*667 _0504_
*668 _0505_
*669 _0506_
*670 _0507_
*671 _0508_
*672 _0509_
*673 _0510_
*674 _0511_
*675 _0512_
*676 _0513_
*677 _0514_
*678 _0515_
*679 _0516_
*680 _0517_
*681 _0518_
*682 _0519_
*683 _0520_
*684 _0521_
*685 _0522_
*686 _0523_
*687 _0524_
*688 _0525_
*689 _0526_
*690 _0527_
*691 _0528_
*692 _0529_
*693 _0530_
*694 _0531_
*695 _0532_
*696 _0533_
*697 _0534_
*698 _0535_
*699 _0536_
*700 _0537_
*701 _0538_
*702 _0539_
*703 _0540_
*704 _0541_
*705 _0542_
*706 _0543_
*707 _0544_
*708 _0545_
*709 _0546_
*710 _0547_
*711 _0548_
*712 _0549_
*713 _0550_
*714 _0551_
*715 _0552_
*716 _0553_
*717 _0554_
*718 _0555_
*719 _0556_
*720 _0557_
*721 _0558_
*722 _0559_
*723 _0560_
*724 _0561_
*725 _0562_
*726 _0563_
*727 _0564_
*728 _0565_
*729 _0566_
*730 _0567_
*731 _0568_
*732 _0569_
*733 _0570_
*734 _0571_
*735 _0572_
*736 _0573_
*737 _0574_
*738 _0575_
*739 _0576_
*740 _0577_
*741 _0578_
*742 _0579_
*743 _0580_
*744 _0581_
*745 _0582_
*746 _0583_
*747 _0584_
*748 _0585_
*749 _0586_
*750 _0587_
*751 _0588_
*752 _0589_
*753 _0590_
*754 _0591_
*755 _0592_
*756 _0593_
*757 _0594_
*758 _0595_
*759 _0596_
*760 _0597_
*761 _0598_
*762 _0599_
*763 _0600_
*764 _0601_
*765 _0602_
*766 _0603_
*767 _0604_
*768 _0605_
*769 _0606_
*770 _0607_
*771 _0608_
*772 _0609_
*773 _0610_
*774 _0611_
*775 _0612_
*776 _0613_
*777 _0614_
*778 _0615_
*779 _0616_
*780 _0617_
*781 _0618_
*782 _0619_
*783 _0620_
*784 _0621_
*785 _0622_
*786 _0623_
*787 _0624_
*788 _0625_
*789 _0626_
*790 _0627_
*791 _0628_
*792 _0629_
*793 _0630_
*794 _0631_
*795 _0632_
*796 _0633_
*797 _0634_
*798 _0635_
*799 _0636_
*800 _0637_
*801 _0638_
*802 _0639_
*803 _0640_
*804 _0641_
*805 _0642_
*806 _0643_
*807 _0644_
*808 _0645_
*809 _0646_
*810 _0647_
*811 _0648_
*812 _0649_
*813 _0650_
*814 _0651_
*815 _0652_
*816 _0653_
*817 _0654_
*818 _0655_
*819 _0656_
*820 _0657_
*821 _0658_
*822 _0659_
*823 _0660_
*824 _0661_
*825 _0662_
*826 _0663_
*827 _0664_
*828 _0665_
*829 _0666_
*830 _0667_
*831 _0668_
*832 _0669_
*833 _0670_
*834 _0671_
*835 _0672_
*836 _0673_
*837 _0674_
*838 _0675_
*839 _0676_
*840 _0677_
*841 _0678_
*842 _0679_
*843 _0680_
*844 _0681_
*845 _0682_
*846 _0683_
*847 _0684_
*848 _0685_
*849 _0686_
*850 _0687_
*851 _0688_
*852 _0689_
*853 _0690_
*854 _0691_
*855 _0692_
*856 _0693_
*857 _0694_
*858 _0695_
*859 _0696_
*860 _0697_
*861 _0698_
*862 _0699_
*863 _0700_
*864 _0701_
*865 _0702_
*866 _0703_
*867 _0704_
*868 _0705_
*869 _0706_
*870 _0707_
*871 _0708_
*872 _0709_
*873 _0710_
*874 _0711_
*875 _0712_
*876 _0713_
*877 _0714_
*878 _0715_
*879 _0716_
*880 _0717_
*881 _0718_
*882 _0719_
*883 _0720_
*884 _0721_
*885 _0722_
*886 _0723_
*887 _0724_
*888 _0725_
*889 _0726_
*890 _0727_
*891 _0728_
*892 _0729_
*893 _0730_
*894 _0731_
*895 _0732_
*896 _0733_
*897 _0734_
*898 _0735_
*899 _0736_
*900 _0737_
*901 _0738_
*902 _0739_
*903 _0740_
*904 _0741_
*905 _0742_
*906 _0743_
*907 _0744_
*908 _0745_
*909 _0746_
*910 _0747_
*911 _0748_
*912 _0749_
*913 _0750_
*914 _0751_
*915 _0752_
*916 _0753_
*917 _0754_
*918 _0755_
*919 _0756_
*920 _0757_
*921 _0758_
*922 _0759_
*923 _0760_
*924 _0761_
*925 _0762_
*926 _0763_
*927 _0764_
*928 _0765_
*929 _0766_
*930 _0767_
*931 _0768_
*932 _0769_
*933 _0770_
*934 _0771_
*935 _0772_
*936 _0773_
*937 _0774_
*938 _0775_
*939 _0776_
*940 _0777_
*941 _0778_
*942 _0779_
*943 _0780_
*944 _0781_
*945 _0782_
*946 _0783_
*947 _0784_
*948 _0785_
*949 _0786_
*950 _0787_
*951 _0788_
*952 _0789_
*953 _0790_
*954 _0791_
*955 _0792_
*956 _0793_
*957 _0794_
*958 _0795_
*959 _0796_
*960 _0797_
*961 _0798_
*962 _0799_
*963 _0800_
*964 _0801_
*965 _0802_
*966 _0803_
*967 _0804_
*968 _0805_
*969 _0806_
*970 _0807_
*971 _0808_
*972 _0809_
*973 _0810_
*974 _0811_
*975 _0812_
*976 _0813_
*977 _0814_
*978 _0815_
*979 _0816_
*980 _0817_
*981 _0818_
*982 _0819_
*983 _0820_
*984 _0821_
*985 _0822_
*986 _0823_
*987 _0824_
*988 _0825_
*989 _0826_
*990 _0827_
*991 _0828_
*992 _0829_
*993 _0830_
*994 _0831_
*995 _0832_
*996 _0833_
*997 _0834_
*998 _0835_
*999 _0836_
*1000 _0837_
*1001 _0838_
*1002 _0839_
*1003 _0840_
*1004 _0841_
*1005 _0842_
*1006 _0843_
*1007 _0844_
*1008 _0845_
*1009 _0846_
*1010 _0847_
*1011 _0848_
*1012 _0849_
*1013 _0850_
*1014 _0851_
*1015 _0852_
*1016 _0853_
*1017 _0854_
*1018 _0855_
*1019 _0856_
*1020 _0857_
*1021 _0858_
*1022 _0859_
*1023 _0860_
*1024 _0861_
*1025 _0862_
*1026 _0863_
*1027 _0864_
*1028 _0865_
*1029 _0866_
*1030 _0867_
*1031 _0868_
*1032 _0869_
*1033 _0870_
*1034 _0871_
*1035 _0872_
*1036 _0873_
*1037 _0874_
*1038 _0875_
*1039 _0876_
*1040 _0877_
*1041 _0878_
*1042 _0879_
*1043 _0880_
*1044 _0881_
*1045 _0882_
*1046 _0883_
*1047 _0884_
*1048 _0885_
*1049 _0886_
*1050 _0887_
*1051 _0888_
*1052 _0889_
*1053 _0890_
*1054 _0891_
*1055 _0892_
*1056 _0893_
*1057 _0894_
*1058 _0895_
*1059 _0896_
*1060 _0897_
*1061 _0898_
*1062 _0899_
*1063 _0900_
*1064 _0901_
*1065 _0902_
*1066 _0903_
*1067 _0904_
*1068 _0905_
*1069 _0906_
*1070 _0907_
*1071 _0908_
*1072 _0909_
*1073 _0910_
*1074 _0911_
*1075 _0912_
*1076 _0913_
*1077 _0914_
*1078 _0915_
*1079 _0916_
*1080 _0917_
*1081 _0918_
*1082 _0919_
*1083 _0920_
*1084 _0921_
*1085 _0922_
*1086 _0923_
*1087 _0924_
*1088 _0925_
*1089 _0926_
*1090 _0927_
*1091 _0928_
*1092 _0929_
*1093 _0930_
*1094 _0931_
*1095 _0932_
*1096 _0933_
*1097 _0934_
*1098 _0935_
*1099 _0936_
*1100 _0937_
*1101 _0938_
*1102 _0939_
*1103 _0940_
*1104 _0941_
*1105 _0942_
*1106 _0943_
*1107 _0944_
*1108 _0945_
*1109 _0946_
*1110 _0947_
*1111 _0948_
*1112 _0949_
*1113 _0950_
*1114 _0951_
*1115 _0952_
*1116 _0953_
*1117 _0954_
*1118 _0955_
*1119 _0956_
*1120 _0957_
*1121 _0958_
*1122 _0959_
*1123 _0960_
*1124 _0961_
*1125 _0962_
*1126 _0963_
*1127 _0964_
*1128 _0965_
*1129 _0966_
*1130 _0967_
*1131 _0968_
*1132 _0969_
*1133 _0970_
*1134 _0971_
*1135 _0972_
*1136 _0973_
*1137 _0974_
*1138 _0975_
*1139 _0976_
*1140 _0977_
*1141 _0978_
*1142 _0979_
*1143 _0980_
*1144 _0981_
*1145 _0982_
*1146 _0983_
*1147 _0984_
*1148 _0985_
*1149 _0986_
*1150 _0987_
*1151 _0988_
*1152 _0989_
*1153 _0990_
*1154 _0991_
*1155 _0992_
*1156 _0993_
*1157 _0994_
*1158 _0995_
*1159 _0996_
*1160 _0997_
*1161 _0998_
*1162 _0999_
*1163 _1000_
*1164 _1001_
*1165 _1002_
*1166 _1003_
*1167 _1004_
*1168 _1005_
*1169 _1006_
*1170 _1007_
*1171 _1008_
*1172 _1009_
*1173 _1010_
*1174 _1011_
*1175 _1012_
*1176 _1013_
*1177 _1014_
*1178 _1015_
*1179 _1016_
*1180 _1017_
*1181 _1018_
*1182 _1019_
*1183 _1020_
*1184 _1021_
*1185 _1022_
*1186 _1023_
*1187 _1024_
*1188 _1025_
*1189 _1026_
*1190 _1027_
*1191 _1028_
*1192 _1029_
*1193 _1030_
*1194 _1031_
*1195 _1032_
*1196 _1033_
*1197 _1034_
*1198 _1035_
*1199 _1036_
*1200 _1037_
*1201 PHY_0
*1202 PHY_1
*1203 PHY_2
*1204 PHY_3
*1205 PHY_4
*1206 PHY_5
*1207 PHY_6
*1208 PHY_7
*1209 PHY_8
*1210 PHY_9
*1211 PHY_10
*1212 PHY_11
*1213 PHY_12
*1214 PHY_13
*1215 PHY_14
*1216 PHY_15
*1217 PHY_16
*1218 PHY_17
*1219 PHY_18
*1220 PHY_19
*1221 PHY_20
*1222 PHY_21
*1223 PHY_22
*1224 PHY_23
*1225 PHY_24
*1226 PHY_25
*1227 PHY_26
*1228 PHY_27
*1229 PHY_28
*1230 PHY_29
*1231 PHY_30
*1232 PHY_31
*1233 PHY_32
*1234 PHY_33
*1235 PHY_34
*1236 PHY_35
*1237 PHY_36
*1238 PHY_37
*1239 PHY_38
*1240 PHY_39
*1241 PHY_40
*1242 PHY_41
*1243 PHY_42
*1244 PHY_43
*1245 PHY_44
*1246 PHY_45
*1247 PHY_46
*1248 PHY_47
*1249 PHY_48
*1250 PHY_49
*1251 PHY_50
*1252 PHY_51
*1253 PHY_52
*1254 PHY_53
*1255 PHY_54
*1256 PHY_55
*1257 PHY_56
*1258 PHY_57
*1259 PHY_58
*1260 PHY_59
*1261 PHY_60
*1262 PHY_61
*1263 PHY_62
*1264 PHY_63
*1265 PHY_64
*1266 PHY_65
*1267 PHY_66
*1268 PHY_67
*1269 PHY_68
*1270 PHY_69
*1271 PHY_70
*1272 PHY_71
*1273 PHY_72
*1274 PHY_73
*1275 PHY_74
*1276 PHY_75
*1277 PHY_76
*1278 PHY_77
*1279 TAP_78
*1280 TAP_79
*1281 TAP_80
*1282 TAP_81
*1283 TAP_82
*1284 TAP_83
*1285 TAP_84
*1286 TAP_85
*1287 TAP_86
*1288 TAP_87
*1289 TAP_88
*1290 TAP_89
*1291 TAP_90
*1292 TAP_91
*1293 TAP_92
*1294 TAP_93
*1295 TAP_94
*1296 TAP_95
*1297 TAP_96
*1298 TAP_97
*1299 TAP_98
*1300 TAP_99
*1301 TAP_100
*1302 TAP_101
*1303 TAP_102
*1304 TAP_103
*1305 TAP_104
*1306 TAP_105
*1307 TAP_106
*1308 TAP_107
*1309 TAP_108
*1310 TAP_109
*1311 TAP_110
*1312 TAP_111
*1313 TAP_112
*1314 TAP_113
*1315 TAP_114
*1316 TAP_115
*1317 TAP_116
*1318 TAP_117
*1319 TAP_118
*1320 TAP_119
*1321 TAP_120
*1322 TAP_121
*1323 TAP_122
*1324 TAP_123
*1325 TAP_124
*1326 TAP_125
*1327 TAP_126
*1328 TAP_127
*1329 TAP_128
*1330 TAP_129
*1331 TAP_130
*1332 TAP_131
*1333 TAP_132
*1334 TAP_133
*1335 TAP_134
*1336 TAP_135
*1337 TAP_136
*1338 TAP_137
*1339 TAP_138
*1340 TAP_139
*1341 TAP_140
*1342 TAP_141
*1343 TAP_142
*1344 TAP_143
*1345 TAP_144
*1346 TAP_145
*1347 TAP_146
*1348 TAP_147
*1349 TAP_148
*1350 TAP_149
*1351 TAP_150
*1352 TAP_151
*1353 TAP_152
*1354 TAP_153
*1355 TAP_154
*1356 TAP_155
*1357 TAP_156
*1358 TAP_157
*1359 TAP_158
*1360 TAP_159
*1361 TAP_160
*1362 TAP_161
*1363 TAP_162
*1364 TAP_163
*1365 TAP_164
*1366 TAP_165
*1367 TAP_166
*1368 TAP_167
*1369 TAP_168
*1370 TAP_169
*1371 TAP_170
*1372 TAP_171
*1373 TAP_172
*1374 TAP_173
*1375 TAP_174
*1376 TAP_175
*1377 TAP_176
*1378 TAP_177
*1379 TAP_178
*1380 TAP_179
*1381 TAP_180
*1382 TAP_181
*1383 TAP_182
*1384 TAP_183
*1385 TAP_184
*1386 TAP_185
*1387 TAP_186
*1388 TAP_187
*1389 TAP_188
*1390 TAP_189
*1391 TAP_190
*1392 TAP_191
*1393 TAP_192
*1394 TAP_193
*1395 TAP_194
*1396 TAP_195
*1397 TAP_196
*1398 TAP_197
*1399 TAP_198
*1400 TAP_199
*1401 TAP_200
*1402 TAP_201
*1403 TAP_202
*1404 TAP_203
*1405 TAP_204
*1406 TAP_205
*1407 TAP_206
*1408 TAP_207
*1409 TAP_208
*1410 TAP_209
*1411 TAP_210
*1412 TAP_211
*1413 TAP_212
*1414 TAP_213
*1415 TAP_214
*1416 TAP_215
*1417 TAP_216
*1418 TAP_217
*1419 TAP_218
*1420 TAP_219
*1421 TAP_220
*1422 TAP_221
*1423 TAP_222
*1424 TAP_223
*1425 TAP_224
*1426 TAP_225
*1427 TAP_226
*1428 TAP_227
*1429 TAP_228
*1430 TAP_229
*1431 TAP_230
*1432 TAP_231
*1433 TAP_232
*1434 TAP_233
*1435 TAP_234
*1436 TAP_235
*1437 TAP_236
*1438 TAP_237
*1439 TAP_238
*1440 TAP_239
*1441 TAP_240
*1442 TAP_241
*1443 TAP_242
*1444 TAP_243
*1445 TAP_244
*1446 TAP_245
*1447 TAP_246
*1448 TAP_247
*1449 TAP_248
*1450 TAP_249
*1451 TAP_250
*1452 TAP_251
*1453 TAP_252
*1454 TAP_253
*1455 TAP_254
*1456 TAP_255
*1457 TAP_256
*1458 TAP_257
*1459 TAP_258
*1460 TAP_259
*1461 TAP_260
*1462 TAP_261
*1463 TAP_262
*1464 TAP_263
*1465 TAP_264
*1466 TAP_265
*1467 TAP_266
*1468 TAP_267
*1469 TAP_268
*1470 TAP_269
*1471 TAP_270
*1472 TAP_271
*1473 TAP_272
*1474 TAP_273
*1475 TAP_274
*1476 TAP_275
*1477 TAP_276
*1478 TAP_277
*1479 TAP_278
*1480 TAP_279
*1481 TAP_280
*1482 TAP_281
*1483 TAP_282
*1484 TAP_283
*1485 TAP_284
*1486 TAP_285
*1487 TAP_286
*1488 TAP_287
*1489 TAP_288
*1490 TAP_289
*1491 TAP_290
*1492 TAP_291
*1493 TAP_292
*1494 TAP_293
*1495 TAP_294
*1496 TAP_295
*1497 TAP_296
*1498 TAP_297
*1499 TAP_298
*1500 TAP_299
*1501 TAP_300
*1502 TAP_301
*1503 TAP_302
*1504 clkbuf_0_clk
*1505 clkbuf_3_0__f_clk
*1506 clkbuf_3_1__f_clk
*1507 clkbuf_3_2__f_clk
*1508 clkbuf_3_3__f_clk
*1509 clkbuf_3_4__f_clk
*1510 clkbuf_3_5__f_clk
*1511 clkbuf_3_6__f_clk
*1512 clkbuf_3_7__f_clk
*1513 FILLER_0_3
*1514 FILLER_0_11
*1515 FILLER_0_19
*1516 FILLER_0_27
*1517 FILLER_0_29
*1518 FILLER_0_31
*1519 FILLER_0_39
*1520 FILLER_0_47
*1521 FILLER_0_55
*1522 FILLER_0_59
*1523 FILLER_0_61
*1524 FILLER_0_69
*1525 FILLER_0_77
*1526 FILLER_0_85
*1527 FILLER_0_89
*1528 FILLER_0_91
*1529 FILLER_0_99
*1530 FILLER_0_107
*1531 FILLER_0_115
*1532 FILLER_0_119
*1533 FILLER_0_121
*1534 FILLER_0_129
*1535 FILLER_0_137
*1536 FILLER_0_145
*1537 FILLER_0_149
*1538 FILLER_0_151
*1539 FILLER_0_159
*1540 FILLER_0_167
*1541 FILLER_0_175
*1542 FILLER_0_179
*1543 FILLER_0_181
*1544 FILLER_0_189
*1545 FILLER_0_197
*1546 FILLER_0_205
*1547 FILLER_0_209
*1548 FILLER_0_211
*1549 FILLER_0_219
*1550 FILLER_0_227
*1551 FILLER_0_235
*1552 FILLER_0_239
*1553 FILLER_0_241
*1554 FILLER_0_249
*1555 FILLER_0_257
*1556 FILLER_0_265
*1557 FILLER_0_269
*1558 FILLER_0_271
*1559 FILLER_0_279
*1560 FILLER_0_287
*1561 FILLER_0_295
*1562 FILLER_0_299
*1563 FILLER_0_301
*1564 FILLER_0_309
*1565 FILLER_0_317
*1566 FILLER_0_325
*1567 FILLER_0_329
*1568 FILLER_0_331
*1569 FILLER_1_3
*1570 FILLER_1_11
*1571 FILLER_1_19
*1572 FILLER_1_27
*1573 FILLER_1_35
*1574 FILLER_1_43
*1575 FILLER_1_51
*1576 FILLER_1_59
*1577 FILLER_1_61
*1578 FILLER_1_69
*1579 FILLER_1_77
*1580 FILLER_1_85
*1581 FILLER_1_93
*1582 FILLER_1_101
*1583 FILLER_1_109
*1584 FILLER_1_117
*1585 FILLER_1_119
*1586 FILLER_1_121
*1587 FILLER_1_129
*1588 FILLER_1_137
*1589 FILLER_1_145
*1590 FILLER_1_153
*1591 FILLER_1_161
*1592 FILLER_1_169
*1593 FILLER_1_177
*1594 FILLER_1_179
*1595 FILLER_1_181
*1596 FILLER_1_189
*1597 FILLER_1_197
*1598 FILLER_1_205
*1599 FILLER_1_213
*1600 FILLER_1_221
*1601 FILLER_1_229
*1602 FILLER_1_237
*1603 FILLER_1_239
*1604 FILLER_1_241
*1605 FILLER_1_249
*1606 FILLER_1_257
*1607 FILLER_1_265
*1608 FILLER_1_273
*1609 FILLER_1_277
*1610 FILLER_1_281
*1611 FILLER_1_289
*1612 FILLER_1_297
*1613 FILLER_1_299
*1614 FILLER_1_301
*1615 FILLER_1_309
*1616 FILLER_1_317
*1617 FILLER_1_325
*1618 FILLER_1_333
*1619 FILLER_2_3
*1620 FILLER_2_11
*1621 FILLER_2_19
*1622 FILLER_2_27
*1623 FILLER_2_29
*1624 FILLER_2_31
*1625 FILLER_2_39
*1626 FILLER_2_47
*1627 FILLER_2_55
*1628 FILLER_2_63
*1629 FILLER_2_71
*1630 FILLER_2_79
*1631 FILLER_2_87
*1632 FILLER_2_89
*1633 FILLER_2_91
*1634 FILLER_2_99
*1635 FILLER_2_107
*1636 FILLER_2_114
*1637 FILLER_2_122
*1638 FILLER_2_130
*1639 FILLER_2_138
*1640 FILLER_2_146
*1641 FILLER_2_151
*1642 FILLER_2_159
*1643 FILLER_2_167
*1644 FILLER_2_171
*1645 FILLER_2_179
*1646 FILLER_2_187
*1647 FILLER_2_191
*1648 FILLER_2_196
*1649 FILLER_2_204
*1650 FILLER_2_208
*1651 FILLER_2_211
*1652 FILLER_2_219
*1653 FILLER_2_246
*1654 FILLER_2_254
*1655 FILLER_2_262
*1656 FILLER_2_284
*1657 FILLER_2_288
*1658 FILLER_2_290
*1659 FILLER_2_301
*1660 FILLER_2_309
*1661 FILLER_2_317
*1662 FILLER_2_325
*1663 FILLER_2_329
*1664 FILLER_2_331
*1665 FILLER_3_3
*1666 FILLER_3_11
*1667 FILLER_3_19
*1668 FILLER_3_27
*1669 FILLER_3_35
*1670 FILLER_3_43
*1671 FILLER_3_51
*1672 FILLER_3_59
*1673 FILLER_3_61
*1674 FILLER_3_69
*1675 FILLER_3_77
*1676 FILLER_3_85
*1677 FILLER_3_93
*1678 FILLER_3_101
*1679 FILLER_3_109
*1680 FILLER_3_117
*1681 FILLER_3_119
*1682 FILLER_3_121
*1683 FILLER_3_129
*1684 FILLER_3_137
*1685 FILLER_3_145
*1686 FILLER_3_153
*1687 FILLER_3_161
*1688 FILLER_3_169
*1689 FILLER_3_177
*1690 FILLER_3_179
*1691 FILLER_3_184
*1692 FILLER_3_192
*1693 FILLER_3_196
*1694 FILLER_3_198
*1695 FILLER_3_202
*1696 FILLER_3_210
*1697 FILLER_3_214
*1698 FILLER_3_222
*1699 FILLER_3_230
*1700 FILLER_3_238
*1701 FILLER_3_241
*1702 FILLER_3_249
*1703 FILLER_3_251
*1704 FILLER_3_256
*1705 FILLER_3_264
*1706 FILLER_3_272
*1707 FILLER_3_280
*1708 FILLER_3_288
*1709 FILLER_3_296
*1710 FILLER_3_301
*1711 FILLER_3_309
*1712 FILLER_3_316
*1713 FILLER_3_324
*1714 FILLER_3_332
*1715 FILLER_3_334
*1716 FILLER_4_3
*1717 FILLER_4_11
*1718 FILLER_4_19
*1719 FILLER_4_27
*1720 FILLER_4_29
*1721 FILLER_4_31
*1722 FILLER_4_39
*1723 FILLER_4_47
*1724 FILLER_4_55
*1725 FILLER_4_63
*1726 FILLER_4_71
*1727 FILLER_4_79
*1728 FILLER_4_87
*1729 FILLER_4_89
*1730 FILLER_4_91
*1731 FILLER_4_95
*1732 FILLER_4_101
*1733 FILLER_4_109
*1734 FILLER_4_117
*1735 FILLER_4_125
*1736 FILLER_4_133
*1737 FILLER_4_141
*1738 FILLER_4_149
*1739 FILLER_4_151
*1740 FILLER_4_159
*1741 FILLER_4_167
*1742 FILLER_4_175
*1743 FILLER_4_188
*1744 FILLER_4_196
*1745 FILLER_4_200
*1746 FILLER_4_205
*1747 FILLER_4_209
*1748 FILLER_4_214
*1749 FILLER_4_218
*1750 FILLER_4_229
*1751 FILLER_4_237
*1752 FILLER_4_245
*1753 FILLER_4_253
*1754 FILLER_4_261
*1755 FILLER_4_269
*1756 FILLER_4_271
*1757 FILLER_4_279
*1758 FILLER_4_287
*1759 FILLER_4_295
*1760 FILLER_4_303
*1761 FILLER_4_311
*1762 FILLER_4_321
*1763 FILLER_4_329
*1764 FILLER_4_331
*1765 FILLER_5_3
*1766 FILLER_5_11
*1767 FILLER_5_19
*1768 FILLER_5_27
*1769 FILLER_5_35
*1770 FILLER_5_43
*1771 FILLER_5_51
*1772 FILLER_5_59
*1773 FILLER_5_61
*1774 FILLER_5_69
*1775 FILLER_5_71
*1776 FILLER_5_75
*1777 FILLER_5_83
*1778 FILLER_5_91
*1779 FILLER_5_99
*1780 FILLER_5_107
*1781 FILLER_5_109
*1782 FILLER_5_113
*1783 FILLER_5_117
*1784 FILLER_5_119
*1785 FILLER_5_134
*1786 FILLER_5_142
*1787 FILLER_5_150
*1788 FILLER_5_158
*1789 FILLER_5_168
*1790 FILLER_5_172
*1791 FILLER_5_174
*1792 FILLER_5_178
*1793 FILLER_5_181
*1794 FILLER_5_189
*1795 FILLER_5_197
*1796 FILLER_5_205
*1797 FILLER_5_213
*1798 FILLER_5_221
*1799 FILLER_5_229
*1800 FILLER_5_237
*1801 FILLER_5_239
*1802 FILLER_5_241
*1803 FILLER_5_249
*1804 FILLER_5_253
*1805 FILLER_5_261
*1806 FILLER_5_269
*1807 FILLER_5_277
*1808 FILLER_5_285
*1809 FILLER_5_293
*1810 FILLER_5_297
*1811 FILLER_5_299
*1812 FILLER_5_301
*1813 FILLER_5_309
*1814 FILLER_5_317
*1815 FILLER_5_325
*1816 FILLER_5_333
*1817 FILLER_6_3
*1818 FILLER_6_11
*1819 FILLER_6_19
*1820 FILLER_6_27
*1821 FILLER_6_29
*1822 FILLER_6_31
*1823 FILLER_6_39
*1824 FILLER_6_47
*1825 FILLER_6_58
*1826 FILLER_6_77
*1827 FILLER_6_85
*1828 FILLER_6_89
*1829 FILLER_6_91
*1830 FILLER_6_96
*1831 FILLER_6_104
*1832 FILLER_6_112
*1833 FILLER_6_116
*1834 FILLER_6_118
*1835 FILLER_6_122
*1836 FILLER_6_126
*1837 FILLER_6_138
*1838 FILLER_6_146
*1839 FILLER_6_151
*1840 FILLER_6_159
*1841 FILLER_6_170
*1842 FILLER_6_174
*1843 FILLER_6_179
*1844 FILLER_6_183
*1845 FILLER_6_191
*1846 FILLER_6_199
*1847 FILLER_6_206
*1848 FILLER_6_211
*1849 FILLER_6_219
*1850 FILLER_6_227
*1851 FILLER_6_241
*1852 FILLER_6_249
*1853 FILLER_6_257
*1854 FILLER_6_259
*1855 FILLER_6_267
*1856 FILLER_6_269
*1857 FILLER_6_274
*1858 FILLER_6_278
*1859 FILLER_6_283
*1860 FILLER_6_288
*1861 FILLER_6_297
*1862 FILLER_6_305
*1863 FILLER_6_316
*1864 FILLER_6_318
*1865 FILLER_6_328
*1866 FILLER_6_331
*1867 FILLER_7_3
*1868 FILLER_7_11
*1869 FILLER_7_19
*1870 FILLER_7_27
*1871 FILLER_7_29
*1872 FILLER_7_40
*1873 FILLER_7_48
*1874 FILLER_7_56
*1875 FILLER_7_71
*1876 FILLER_7_88
*1877 FILLER_7_96
*1878 FILLER_7_119
*1879 FILLER_7_121
*1880 FILLER_7_126
*1881 FILLER_7_134
*1882 FILLER_7_157
*1883 FILLER_7_165
*1884 FILLER_7_169
*1885 FILLER_7_179
*1886 FILLER_7_184
*1887 FILLER_7_188
*1888 FILLER_7_196
*1889 FILLER_7_201
*1890 FILLER_7_205
*1891 FILLER_7_211
*1892 FILLER_7_215
*1893 FILLER_7_217
*1894 FILLER_7_221
*1895 FILLER_7_225
*1896 FILLER_7_239
*1897 FILLER_7_254
*1898 FILLER_7_265
*1899 FILLER_7_269
*1900 FILLER_7_274
*1901 FILLER_7_285
*1902 FILLER_7_293
*1903 FILLER_7_297
*1904 FILLER_7_299
*1905 FILLER_7_301
*1906 FILLER_7_303
*1907 FILLER_7_307
*1908 FILLER_7_312
*1909 FILLER_7_316
*1910 FILLER_7_318
*1911 FILLER_7_329
*1912 FILLER_7_333
*1913 FILLER_8_3
*1914 FILLER_8_11
*1915 FILLER_8_19
*1916 FILLER_8_26
*1917 FILLER_8_31
*1918 FILLER_8_39
*1919 FILLER_8_47
*1920 FILLER_8_55
*1921 FILLER_8_63
*1922 FILLER_8_67
*1923 FILLER_8_89
*1924 FILLER_8_91
*1925 FILLER_8_99
*1926 FILLER_8_107
*1927 FILLER_8_115
*1928 FILLER_8_123
*1929 FILLER_8_131
*1930 FILLER_8_139
*1931 FILLER_8_147
*1932 FILLER_8_149
*1933 FILLER_8_159
*1934 FILLER_8_167
*1935 FILLER_8_175
*1936 FILLER_8_183
*1937 FILLER_8_191
*1938 FILLER_8_195
*1939 FILLER_8_203
*1940 FILLER_8_207
*1941 FILLER_8_209
*1942 FILLER_8_211
*1943 FILLER_8_220
*1944 FILLER_8_228
*1945 FILLER_8_236
*1946 FILLER_8_240
*1947 FILLER_8_246
*1948 FILLER_8_254
*1949 FILLER_8_262
*1950 FILLER_8_271
*1951 FILLER_8_280
*1952 FILLER_8_284
*1953 FILLER_8_306
*1954 FILLER_8_314
*1955 FILLER_8_318
*1956 FILLER_8_326
*1957 FILLER_8_331
*1958 FILLER_9_3
*1959 FILLER_9_11
*1960 FILLER_9_15
*1961 FILLER_9_19
*1962 FILLER_9_24
*1963 FILLER_9_35
*1964 FILLER_9_43
*1965 FILLER_9_51
*1966 FILLER_9_59
*1967 FILLER_9_61
*1968 FILLER_9_65
*1969 FILLER_9_67
*1970 FILLER_9_88
*1971 FILLER_9_96
*1972 FILLER_9_104
*1973 FILLER_9_112
*1974 FILLER_9_121
*1975 FILLER_9_129
*1976 FILLER_9_150
*1977 FILLER_9_158
*1978 FILLER_9_166
*1979 FILLER_9_170
*1980 FILLER_9_177
*1981 FILLER_9_179
*1982 FILLER_9_181
*1983 FILLER_9_189
*1984 FILLER_9_193
*1985 FILLER_9_195
*1986 FILLER_9_216
*1987 FILLER_9_224
*1988 FILLER_9_232
*1989 FILLER_9_241
*1990 FILLER_9_249
*1991 FILLER_9_257
*1992 FILLER_9_265
*1993 FILLER_9_273
*1994 FILLER_9_281
*1995 FILLER_9_289
*1996 FILLER_9_297
*1997 FILLER_9_299
*1998 FILLER_9_321
*1999 FILLER_9_325
*2000 FILLER_9_333
*2001 FILLER_10_3
*2002 FILLER_10_11
*2003 FILLER_10_18
*2004 FILLER_10_26
*2005 FILLER_10_31
*2006 FILLER_10_39
*2007 FILLER_10_47
*2008 FILLER_10_55
*2009 FILLER_10_63
*2010 FILLER_10_67
*2011 FILLER_10_69
*2012 FILLER_10_91
*2013 FILLER_10_99
*2014 FILLER_10_147
*2015 FILLER_10_149
*2016 FILLER_10_151
*2017 FILLER_10_159
*2018 FILLER_10_167
*2019 FILLER_10_191
*2020 FILLER_10_199
*2021 FILLER_10_207
*2022 FILLER_10_209
*2023 FILLER_10_211
*2024 FILLER_10_233
*2025 FILLER_10_241
*2026 FILLER_10_263
*2027 FILLER_10_267
*2028 FILLER_10_269
*2029 FILLER_10_271
*2030 FILLER_10_279
*2031 FILLER_10_287
*2032 FILLER_10_291
*2033 FILLER_10_312
*2034 FILLER_10_320
*2035 FILLER_10_328
*2036 FILLER_10_331
*2037 FILLER_11_3
*2038 FILLER_11_11
*2039 FILLER_11_13
*2040 FILLER_11_17
*2041 FILLER_11_25
*2042 FILLER_11_33
*2043 FILLER_11_41
*2044 FILLER_11_49
*2045 FILLER_11_57
*2046 FILLER_11_59
*2047 FILLER_11_61
*2048 FILLER_11_65
*2049 FILLER_11_67
*2050 FILLER_11_88
*2051 FILLER_11_96
*2052 FILLER_11_121
*2053 FILLER_11_125
*2054 FILLER_11_146
*2055 FILLER_11_154
*2056 FILLER_11_158
*2057 FILLER_11_187
*2058 FILLER_11_195
*2059 FILLER_11_223
*2060 FILLER_11_231
*2061 FILLER_11_239
*2062 FILLER_11_241
*2063 FILLER_11_262
*2064 FILLER_11_266
*2065 FILLER_11_268
*2066 FILLER_11_289
*2067 FILLER_11_297
*2068 FILLER_11_299
*2069 FILLER_11_321
*2070 FILLER_11_325
*2071 FILLER_11_333
*2072 FILLER_12_3
*2073 FILLER_12_11
*2074 FILLER_12_15
*2075 FILLER_12_20
*2076 FILLER_12_28
*2077 FILLER_12_37
*2078 FILLER_12_45
*2079 FILLER_12_53
*2080 FILLER_12_61
*2081 FILLER_12_65
*2082 FILLER_12_87
*2083 FILLER_12_89
*2084 FILLER_12_111
*2085 FILLER_12_139
*2086 FILLER_12_147
*2087 FILLER_12_149
*2088 FILLER_12_151
*2089 FILLER_12_155
*2090 FILLER_12_157
*2091 FILLER_12_178
*2092 FILLER_12_206
*2093 FILLER_12_211
*2094 FILLER_12_235
*2095 FILLER_12_239
*2096 FILLER_12_260
*2097 FILLER_12_268
*2098 FILLER_12_271
*2099 FILLER_12_279
*2100 FILLER_12_287
*2101 FILLER_12_311
*2102 FILLER_12_319
*2103 FILLER_12_327
*2104 FILLER_12_329
*2105 FILLER_12_331
*2106 FILLER_13_3
*2107 FILLER_13_11
*2108 FILLER_13_29
*2109 FILLER_13_33
*2110 FILLER_13_41
*2111 FILLER_13_49
*2112 FILLER_13_57
*2113 FILLER_13_59
*2114 FILLER_13_61
*2115 FILLER_13_65
*2116 FILLER_13_67
*2117 FILLER_13_108
*2118 FILLER_13_116
*2119 FILLER_13_121
*2120 FILLER_13_129
*2121 FILLER_13_150
*2122 FILLER_13_158
*2123 FILLER_13_166
*2124 FILLER_13_174
*2125 FILLER_13_178
*2126 FILLER_13_201
*2127 FILLER_13_209
*2128 FILLER_13_217
*2129 FILLER_13_219
*2130 FILLER_13_241
*2131 FILLER_13_245
*2132 FILLER_13_286
*2133 FILLER_13_294
*2134 FILLER_13_298
*2135 FILLER_13_321
*2136 FILLER_13_329
*2137 FILLER_13_333
*2138 FILLER_14_3
*2139 FILLER_14_11
*2140 FILLER_14_19
*2141 FILLER_14_27
*2142 FILLER_14_29
*2143 FILLER_14_41
*2144 FILLER_14_49
*2145 FILLER_14_57
*2146 FILLER_14_65
*2147 FILLER_14_87
*2148 FILLER_14_89
*2149 FILLER_14_111
*2150 FILLER_14_139
*2151 FILLER_14_147
*2152 FILLER_14_149
*2153 FILLER_14_151
*2154 FILLER_14_159
*2155 FILLER_14_167
*2156 FILLER_14_175
*2157 FILLER_14_183
*2158 FILLER_14_191
*2159 FILLER_14_199
*2160 FILLER_14_207
*2161 FILLER_14_209
*2162 FILLER_14_211
*2163 FILLER_14_219
*2164 FILLER_14_227
*2165 FILLER_14_248
*2166 FILLER_14_256
*2167 FILLER_14_264
*2168 FILLER_14_268
*2169 FILLER_14_271
*2170 FILLER_14_279
*2171 FILLER_14_287
*2172 FILLER_14_295
*2173 FILLER_14_317
*2174 FILLER_14_325
*2175 FILLER_14_329
*2176 FILLER_14_331
*2177 FILLER_15_3
*2178 FILLER_15_11
*2179 FILLER_15_13
*2180 FILLER_15_17
*2181 FILLER_15_21
*2182 FILLER_15_28
*2183 FILLER_15_32
*2184 FILLER_15_42
*2185 FILLER_15_50
*2186 FILLER_15_58
*2187 FILLER_15_61
*2188 FILLER_15_65
*2189 FILLER_15_67
*2190 FILLER_15_88
*2191 FILLER_15_96
*2192 FILLER_15_104
*2193 FILLER_15_112
*2194 FILLER_15_121
*2195 FILLER_15_129
*2196 FILLER_15_137
*2197 FILLER_15_141
*2198 FILLER_15_149
*2199 FILLER_15_157
*2200 FILLER_15_165
*2201 FILLER_15_173
*2202 FILLER_15_177
*2203 FILLER_15_179
*2204 FILLER_15_181
*2205 FILLER_15_189
*2206 FILLER_15_197
*2207 FILLER_15_205
*2208 FILLER_15_209
*2209 FILLER_15_231
*2210 FILLER_15_239
*2211 FILLER_15_241
*2212 FILLER_15_245
*2213 FILLER_15_266
*2214 FILLER_15_274
*2215 FILLER_15_282
*2216 FILLER_15_290
*2217 FILLER_15_298
*2218 FILLER_15_321
*2219 FILLER_15_329
*2220 FILLER_15_333
*2221 FILLER_16_3
*2222 FILLER_16_11
*2223 FILLER_16_19
*2224 FILLER_16_27
*2225 FILLER_16_29
*2226 FILLER_16_31
*2227 FILLER_16_39
*2228 FILLER_16_47
*2229 FILLER_16_55
*2230 FILLER_16_63
*2231 FILLER_16_87
*2232 FILLER_16_89
*2233 FILLER_16_111
*2234 FILLER_16_115
*2235 FILLER_16_117
*2236 FILLER_16_138
*2237 FILLER_16_142
*2238 FILLER_16_151
*2239 FILLER_16_153
*2240 FILLER_16_162
*2241 FILLER_16_170
*2242 FILLER_16_178
*2243 FILLER_16_197
*2244 FILLER_16_206
*2245 FILLER_16_211
*2246 FILLER_16_219
*2247 FILLER_16_231
*2248 FILLER_16_239
*2249 FILLER_16_247
*2250 FILLER_16_269
*2251 FILLER_16_271
*2252 FILLER_16_279
*2253 FILLER_16_307
*2254 FILLER_16_315
*2255 FILLER_16_323
*2256 FILLER_16_327
*2257 FILLER_16_329
*2258 FILLER_16_331
*2259 FILLER_17_3
*2260 FILLER_17_11
*2261 FILLER_17_15
*2262 FILLER_17_28
*2263 FILLER_17_36
*2264 FILLER_17_44
*2265 FILLER_17_52
*2266 FILLER_17_61
*2267 FILLER_17_69
*2268 FILLER_17_73
*2269 FILLER_17_75
*2270 FILLER_17_96
*2271 FILLER_17_121
*2272 FILLER_17_129
*2273 FILLER_17_137
*2274 FILLER_17_148
*2275 FILLER_17_153
*2276 FILLER_17_157
*2277 FILLER_17_170
*2278 FILLER_17_178
*2279 FILLER_17_186
*2280 FILLER_17_194
*2281 FILLER_17_202
*2282 FILLER_17_210
*2283 FILLER_17_223
*2284 FILLER_17_231
*2285 FILLER_17_239
*2286 FILLER_17_241
*2287 FILLER_17_249
*2288 FILLER_17_253
*2289 FILLER_17_255
*2290 FILLER_17_259
*2291 FILLER_17_267
*2292 FILLER_17_289
*2293 FILLER_17_297
*2294 FILLER_17_299
*2295 FILLER_17_321
*2296 FILLER_17_329
*2297 FILLER_17_333
*2298 FILLER_18_3
*2299 FILLER_18_11
*2300 FILLER_18_27
*2301 FILLER_18_29
*2302 FILLER_18_31
*2303 FILLER_18_35
*2304 FILLER_18_39
*2305 FILLER_18_47
*2306 FILLER_18_55
*2307 FILLER_18_63
*2308 FILLER_18_71
*2309 FILLER_18_79
*2310 FILLER_18_87
*2311 FILLER_18_89
*2312 FILLER_18_91
*2313 FILLER_18_99
*2314 FILLER_18_107
*2315 FILLER_18_115
*2316 FILLER_18_123
*2317 FILLER_18_131
*2318 FILLER_18_139
*2319 FILLER_18_147
*2320 FILLER_18_149
*2321 FILLER_18_157
*2322 FILLER_18_165
*2323 FILLER_18_173
*2324 FILLER_18_177
*2325 FILLER_18_179
*2326 FILLER_18_186
*2327 FILLER_18_194
*2328 FILLER_18_202
*2329 FILLER_18_211
*2330 FILLER_18_215
*2331 FILLER_18_217
*2332 FILLER_18_226
*2333 FILLER_18_234
*2334 FILLER_18_238
*2335 FILLER_18_240
*2336 FILLER_18_244
*2337 FILLER_18_251
*2338 FILLER_18_259
*2339 FILLER_18_267
*2340 FILLER_18_269
*2341 FILLER_18_271
*2342 FILLER_18_279
*2343 FILLER_18_287
*2344 FILLER_18_309
*2345 FILLER_18_317
*2346 FILLER_18_328
*2347 FILLER_18_334
*2348 FILLER_19_3
*2349 FILLER_19_11
*2350 FILLER_19_15
*2351 FILLER_19_24
*2352 FILLER_19_49
*2353 FILLER_19_57
*2354 FILLER_19_59
*2355 FILLER_19_61
*2356 FILLER_19_69
*2357 FILLER_19_71
*2358 FILLER_19_112
*2359 FILLER_19_121
*2360 FILLER_19_129
*2361 FILLER_19_137
*2362 FILLER_19_145
*2363 FILLER_19_149
*2364 FILLER_19_153
*2365 FILLER_19_157
*2366 FILLER_19_166
*2367 FILLER_19_177
*2368 FILLER_19_179
*2369 FILLER_19_181
*2370 FILLER_19_187
*2371 FILLER_19_189
*2372 FILLER_19_200
*2373 FILLER_19_209
*2374 FILLER_19_217
*2375 FILLER_19_225
*2376 FILLER_19_227
*2377 FILLER_19_231
*2378 FILLER_19_239
*2379 FILLER_19_250
*2380 FILLER_19_258
*2381 FILLER_19_282
*2382 FILLER_19_290
*2383 FILLER_19_298
*2384 FILLER_19_301
*2385 FILLER_19_309
*2386 FILLER_19_317
*2387 FILLER_19_321
*2388 FILLER_19_325
*2389 FILLER_19_333
*2390 FILLER_20_3
*2391 FILLER_20_11
*2392 FILLER_20_15
*2393 FILLER_20_19
*2394 FILLER_20_27
*2395 FILLER_20_29
*2396 FILLER_20_31
*2397 FILLER_20_35
*2398 FILLER_20_39
*2399 FILLER_20_47
*2400 FILLER_20_55
*2401 FILLER_20_63
*2402 FILLER_20_71
*2403 FILLER_20_79
*2404 FILLER_20_87
*2405 FILLER_20_89
*2406 FILLER_20_111
*2407 FILLER_20_119
*2408 FILLER_20_127
*2409 FILLER_20_135
*2410 FILLER_20_139
*2411 FILLER_20_148
*2412 FILLER_20_151
*2413 FILLER_20_159
*2414 FILLER_20_167
*2415 FILLER_20_175
*2416 FILLER_20_183
*2417 FILLER_20_191
*2418 FILLER_20_199
*2419 FILLER_20_207
*2420 FILLER_20_209
*2421 FILLER_20_211
*2422 FILLER_20_220
*2423 FILLER_20_228
*2424 FILLER_20_230
*2425 FILLER_20_239
*2426 FILLER_20_247
*2427 FILLER_20_255
*2428 FILLER_20_263
*2429 FILLER_20_267
*2430 FILLER_20_269
*2431 FILLER_20_271
*2432 FILLER_20_279
*2433 FILLER_20_287
*2434 FILLER_20_308
*2435 FILLER_20_316
*2436 FILLER_20_320
*2437 FILLER_20_325
*2438 FILLER_20_329
*2439 FILLER_20_331
*2440 FILLER_21_3
*2441 FILLER_21_11
*2442 FILLER_21_19
*2443 FILLER_21_27
*2444 FILLER_21_35
*2445 FILLER_21_43
*2446 FILLER_21_51
*2447 FILLER_21_58
*2448 FILLER_21_61
*2449 FILLER_21_69
*2450 FILLER_21_77
*2451 FILLER_21_99
*2452 FILLER_21_121
*2453 FILLER_21_125
*2454 FILLER_21_127
*2455 FILLER_21_162
*2456 FILLER_21_170
*2457 FILLER_21_172
*2458 FILLER_21_179
*2459 FILLER_21_181
*2460 FILLER_21_189
*2461 FILLER_21_197
*2462 FILLER_21_206
*2463 FILLER_21_210
*2464 FILLER_21_222
*2465 FILLER_21_226
*2466 FILLER_21_231
*2467 FILLER_21_239
*2468 FILLER_21_251
*2469 FILLER_21_268
*2470 FILLER_21_276
*2471 FILLER_21_284
*2472 FILLER_21_292
*2473 FILLER_21_301
*2474 FILLER_21_309
*2475 FILLER_21_313
*2476 FILLER_21_315
*2477 FILLER_21_319
*2478 FILLER_21_327
*2479 FILLER_22_3
*2480 FILLER_22_11
*2481 FILLER_22_20
*2482 FILLER_22_27
*2483 FILLER_22_29
*2484 FILLER_22_37
*2485 FILLER_22_45
*2486 FILLER_22_53
*2487 FILLER_22_61
*2488 FILLER_22_69
*2489 FILLER_22_77
*2490 FILLER_22_85
*2491 FILLER_22_89
*2492 FILLER_22_111
*2493 FILLER_22_119
*2494 FILLER_22_141
*2495 FILLER_22_149
*2496 FILLER_22_151
*2497 FILLER_22_159
*2498 FILLER_22_179
*2499 FILLER_22_183
*2500 FILLER_22_190
*2501 FILLER_22_198
*2502 FILLER_22_206
*2503 FILLER_22_215
*2504 FILLER_22_223
*2505 FILLER_22_235
*2506 FILLER_22_243
*2507 FILLER_22_251
*2508 FILLER_22_259
*2509 FILLER_22_267
*2510 FILLER_22_269
*2511 FILLER_22_271
*2512 FILLER_22_279
*2513 FILLER_22_287
*2514 FILLER_22_291
*2515 FILLER_22_296
*2516 FILLER_22_304
*2517 FILLER_22_312
*2518 FILLER_22_316
*2519 FILLER_22_318
*2520 FILLER_22_323
*2521 FILLER_22_327
*2522 FILLER_22_329
*2523 FILLER_22_331
*2524 FILLER_23_3
*2525 FILLER_23_11
*2526 FILLER_23_25
*2527 FILLER_23_37
*2528 FILLER_23_45
*2529 FILLER_23_59
*2530 FILLER_23_67
*2531 FILLER_23_75
*2532 FILLER_23_117
*2533 FILLER_23_119
*2534 FILLER_23_121
*2535 FILLER_23_129
*2536 FILLER_23_137
*2537 FILLER_23_145
*2538 FILLER_23_153
*2539 FILLER_23_161
*2540 FILLER_23_169
*2541 FILLER_23_173
*2542 FILLER_23_177
*2543 FILLER_23_179
*2544 FILLER_23_219
*2545 FILLER_23_231
*2546 FILLER_23_239
*2547 FILLER_23_246
*2548 FILLER_23_254
*2549 FILLER_23_263
*2550 FILLER_23_271
*2551 FILLER_23_295
*2552 FILLER_23_299
*2553 FILLER_23_321
*2554 FILLER_23_325
*2555 FILLER_23_333
*2556 FILLER_24_3
*2557 FILLER_24_11
*2558 FILLER_24_19
*2559 FILLER_24_27
*2560 FILLER_24_29
*2561 FILLER_24_31
*2562 FILLER_24_39
*2563 FILLER_24_47
*2564 FILLER_24_51
*2565 FILLER_24_56
*2566 FILLER_24_64
*2567 FILLER_24_78
*2568 FILLER_24_86
*2569 FILLER_24_91
*2570 FILLER_24_99
*2571 FILLER_24_107
*2572 FILLER_24_131
*2573 FILLER_24_139
*2574 FILLER_24_147
*2575 FILLER_24_149
*2576 FILLER_24_151
*2577 FILLER_24_156
*2578 FILLER_24_161
*2579 FILLER_24_169
*2580 FILLER_24_177
*2581 FILLER_24_185
*2582 FILLER_24_187
*2583 FILLER_24_202
*2584 FILLER_24_211
*2585 FILLER_24_219
*2586 FILLER_24_223
*2587 FILLER_24_233
*2588 FILLER_24_241
*2589 FILLER_24_245
*2590 FILLER_24_247
*2591 FILLER_24_251
*2592 FILLER_24_255
*2593 FILLER_24_263
*2594 FILLER_24_267
*2595 FILLER_24_269
*2596 FILLER_24_271
*2597 FILLER_24_279
*2598 FILLER_24_283
*2599 FILLER_24_288
*2600 FILLER_24_293
*2601 FILLER_24_301
*2602 FILLER_24_309
*2603 FILLER_24_317
*2604 FILLER_24_328
*2605 FILLER_24_331
*2606 FILLER_25_3
*2607 FILLER_25_11
*2608 FILLER_25_19
*2609 FILLER_25_21
*2610 FILLER_25_32
*2611 FILLER_25_36
*2612 FILLER_25_44
*2613 FILLER_25_52
*2614 FILLER_25_61
*2615 FILLER_25_69
*2616 FILLER_25_93
*2617 FILLER_25_101
*2618 FILLER_25_109
*2619 FILLER_25_117
*2620 FILLER_25_119
*2621 FILLER_25_121
*2622 FILLER_25_129
*2623 FILLER_25_136
*2624 FILLER_25_144
*2625 FILLER_25_152
*2626 FILLER_25_159
*2627 FILLER_25_177
*2628 FILLER_25_179
*2629 FILLER_25_181
*2630 FILLER_25_188
*2631 FILLER_25_196
*2632 FILLER_25_204
*2633 FILLER_25_212
*2634 FILLER_25_214
*2635 FILLER_25_223
*2636 FILLER_25_233
*2637 FILLER_25_241
*2638 FILLER_25_265
*2639 FILLER_25_273
*2640 FILLER_25_281
*2641 FILLER_25_289
*2642 FILLER_25_297
*2643 FILLER_25_299
*2644 FILLER_25_321
*2645 FILLER_25_329
*2646 FILLER_25_333
*2647 FILLER_26_3
*2648 FILLER_26_11
*2649 FILLER_26_15
*2650 FILLER_26_20
*2651 FILLER_26_28
*2652 FILLER_26_31
*2653 FILLER_26_39
*2654 FILLER_26_47
*2655 FILLER_26_55
*2656 FILLER_26_63
*2657 FILLER_26_71
*2658 FILLER_26_79
*2659 FILLER_26_87
*2660 FILLER_26_89
*2661 FILLER_26_91
*2662 FILLER_26_99
*2663 FILLER_26_103
*2664 FILLER_26_105
*2665 FILLER_26_146
*2666 FILLER_26_165
*2667 FILLER_26_173
*2668 FILLER_26_181
*2669 FILLER_26_189
*2670 FILLER_26_197
*2671 FILLER_26_205
*2672 FILLER_26_209
*2673 FILLER_26_211
*2674 FILLER_26_219
*2675 FILLER_26_227
*2676 FILLER_26_235
*2677 FILLER_26_243
*2678 FILLER_26_251
*2679 FILLER_26_255
*2680 FILLER_26_260
*2681 FILLER_26_262
*2682 FILLER_26_269
*2683 FILLER_26_271
*2684 FILLER_26_279
*2685 FILLER_26_287
*2686 FILLER_26_295
*2687 FILLER_26_303
*2688 FILLER_26_311
*2689 FILLER_26_315
*2690 FILLER_26_324
*2691 FILLER_26_328
*2692 FILLER_26_331
*2693 FILLER_27_3
*2694 FILLER_27_11
*2695 FILLER_27_16
*2696 FILLER_27_20
*2697 FILLER_27_29
*2698 FILLER_27_37
*2699 FILLER_27_45
*2700 FILLER_27_56
*2701 FILLER_27_61
*2702 FILLER_27_69
*2703 FILLER_27_73
*2704 FILLER_27_77
*2705 FILLER_27_82
*2706 FILLER_27_86
*2707 FILLER_27_107
*2708 FILLER_27_115
*2709 FILLER_27_119
*2710 FILLER_27_121
*2711 FILLER_27_129
*2712 FILLER_27_137
*2713 FILLER_27_145
*2714 FILLER_27_149
*2715 FILLER_27_158
*2716 FILLER_27_166
*2717 FILLER_27_174
*2718 FILLER_27_178
*2719 FILLER_27_187
*2720 FILLER_27_195
*2721 FILLER_27_203
*2722 FILLER_27_205
*2723 FILLER_27_209
*2724 FILLER_27_213
*2725 FILLER_27_215
*2726 FILLER_27_219
*2727 FILLER_27_227
*2728 FILLER_27_235
*2729 FILLER_27_239
*2730 FILLER_27_241
*2731 FILLER_27_249
*2732 FILLER_27_257
*2733 FILLER_27_284
*2734 FILLER_27_292
*2735 FILLER_27_327
*2736 FILLER_28_3
*2737 FILLER_28_11
*2738 FILLER_28_13
*2739 FILLER_28_26
*2740 FILLER_28_31
*2741 FILLER_28_35
*2742 FILLER_28_39
*2743 FILLER_28_47
*2744 FILLER_28_55
*2745 FILLER_28_60
*2746 FILLER_28_68
*2747 FILLER_28_91
*2748 FILLER_28_99
*2749 FILLER_28_127
*2750 FILLER_28_135
*2751 FILLER_28_143
*2752 FILLER_28_147
*2753 FILLER_28_149
*2754 FILLER_28_151
*2755 FILLER_28_159
*2756 FILLER_28_167
*2757 FILLER_28_175
*2758 FILLER_28_179
*2759 FILLER_28_183
*2760 FILLER_28_187
*2761 FILLER_28_192
*2762 FILLER_28_198
*2763 FILLER_28_218
*2764 FILLER_28_240
*2765 FILLER_28_268
*2766 FILLER_28_291
*2767 FILLER_28_299
*2768 FILLER_28_307
*2769 FILLER_28_311
*2770 FILLER_28_313
*2771 FILLER_28_321
*2772 FILLER_28_329
*2773 FILLER_28_331
*2774 FILLER_29_3
*2775 FILLER_29_11
*2776 FILLER_29_21
*2777 FILLER_29_29
*2778 FILLER_29_33
*2779 FILLER_29_38
*2780 FILLER_29_46
*2781 FILLER_29_57
*2782 FILLER_29_59
*2783 FILLER_29_61
*2784 FILLER_29_69
*2785 FILLER_29_77
*2786 FILLER_29_98
*2787 FILLER_29_121
*2788 FILLER_29_123
*2789 FILLER_29_144
*2790 FILLER_29_152
*2791 FILLER_29_160
*2792 FILLER_29_164
*2793 FILLER_29_172
*2794 FILLER_29_184
*2795 FILLER_29_197
*2796 FILLER_29_199
*2797 FILLER_29_205
*2798 FILLER_29_213
*2799 FILLER_29_228
*2800 FILLER_29_236
*2801 FILLER_29_245
*2802 FILLER_29_253
*2803 FILLER_29_257
*2804 FILLER_29_279
*2805 FILLER_29_287
*2806 FILLER_29_293
*2807 FILLER_29_297
*2808 FILLER_29_299
*2809 FILLER_29_301
*2810 FILLER_29_309
*2811 FILLER_29_317
*2812 FILLER_29_322
*2813 FILLER_29_330
*2814 FILLER_29_334
*2815 FILLER_30_3
*2816 FILLER_30_11
*2817 FILLER_30_19
*2818 FILLER_30_27
*2819 FILLER_30_29
*2820 FILLER_30_31
*2821 FILLER_30_39
*2822 FILLER_30_47
*2823 FILLER_30_49
*2824 FILLER_30_53
*2825 FILLER_30_61
*2826 FILLER_30_69
*2827 FILLER_30_91
*2828 FILLER_30_99
*2829 FILLER_30_107
*2830 FILLER_30_115
*2831 FILLER_30_117
*2832 FILLER_30_138
*2833 FILLER_30_146
*2834 FILLER_30_171
*2835 FILLER_30_179
*2836 FILLER_30_187
*2837 FILLER_30_191
*2838 FILLER_30_195
*2839 FILLER_30_199
*2840 FILLER_30_204
*2841 FILLER_30_208
*2842 FILLER_30_211
*2843 FILLER_30_215
*2844 FILLER_30_217
*2845 FILLER_30_223
*2846 FILLER_30_231
*2847 FILLER_30_235
*2848 FILLER_30_244
*2849 FILLER_30_252
*2850 FILLER_30_256
*2851 FILLER_30_260
*2852 FILLER_30_268
*2853 FILLER_30_271
*2854 FILLER_30_279
*2855 FILLER_30_287
*2856 FILLER_30_295
*2857 FILLER_30_303
*2858 FILLER_30_311
*2859 FILLER_30_313
*2860 FILLER_30_328
*2861 FILLER_30_331
*2862 FILLER_31_3
*2863 FILLER_31_11
*2864 FILLER_31_15
*2865 FILLER_31_25
*2866 FILLER_31_29
*2867 FILLER_31_33
*2868 FILLER_31_40
*2869 FILLER_31_48
*2870 FILLER_31_59
*2871 FILLER_31_64
*2872 FILLER_31_72
*2873 FILLER_31_80
*2874 FILLER_31_101
*2875 FILLER_31_109
*2876 FILLER_31_117
*2877 FILLER_31_119
*2878 FILLER_31_121
*2879 FILLER_31_142
*2880 FILLER_31_150
*2881 FILLER_31_174
*2882 FILLER_31_178
*2883 FILLER_31_181
*2884 FILLER_31_189
*2885 FILLER_31_197
*2886 FILLER_31_205
*2887 FILLER_31_213
*2888 FILLER_31_221
*2889 FILLER_31_229
*2890 FILLER_31_237
*2891 FILLER_31_239
*2892 FILLER_31_241
*2893 FILLER_31_249
*2894 FILLER_31_253
*2895 FILLER_31_259
*2896 FILLER_31_301
*2897 FILLER_31_309
*2898 FILLER_31_313
*2899 FILLER_31_318
*2900 FILLER_31_329
*2901 FILLER_31_333
*2902 FILLER_32_3
*2903 FILLER_32_11
*2904 FILLER_32_13
*2905 FILLER_32_24
*2906 FILLER_32_28
*2907 FILLER_32_31
*2908 FILLER_32_39
*2909 FILLER_32_43
*2910 FILLER_32_55
*2911 FILLER_32_63
*2912 FILLER_32_71
*2913 FILLER_32_79
*2914 FILLER_32_87
*2915 FILLER_32_89
*2916 FILLER_32_111
*2917 FILLER_32_119
*2918 FILLER_32_127
*2919 FILLER_32_135
*2920 FILLER_32_143
*2921 FILLER_32_147
*2922 FILLER_32_149
*2923 FILLER_32_151
*2924 FILLER_32_159
*2925 FILLER_32_163
*2926 FILLER_32_165
*2927 FILLER_32_182
*2928 FILLER_32_190
*2929 FILLER_32_198
*2930 FILLER_32_202
*2931 FILLER_32_206
*2932 FILLER_32_214
*2933 FILLER_32_222
*2934 FILLER_32_226
*2935 FILLER_32_248
*2936 FILLER_32_256
*2937 FILLER_32_264
*2938 FILLER_32_268
*2939 FILLER_32_271
*2940 FILLER_32_279
*2941 FILLER_32_287
*2942 FILLER_32_295
*2943 FILLER_32_303
*2944 FILLER_32_314
*2945 FILLER_32_322
*2946 FILLER_32_331
*2947 FILLER_33_3
*2948 FILLER_33_11
*2949 FILLER_33_19
*2950 FILLER_33_27
*2951 FILLER_33_35
*2952 FILLER_33_43
*2953 FILLER_33_51
*2954 FILLER_33_59
*2955 FILLER_33_61
*2956 FILLER_33_69
*2957 FILLER_33_77
*2958 FILLER_33_79
*2959 FILLER_33_96
*2960 FILLER_33_104
*2961 FILLER_33_112
*2962 FILLER_33_121
*2963 FILLER_33_125
*2964 FILLER_33_130
*2965 FILLER_33_148
*2966 FILLER_33_156
*2967 FILLER_33_164
*2968 FILLER_33_172
*2969 FILLER_33_174
*2970 FILLER_33_179
*2971 FILLER_33_181
*2972 FILLER_33_212
*2973 FILLER_33_220
*2974 FILLER_33_228
*2975 FILLER_33_236
*2976 FILLER_33_241
*2977 FILLER_33_245
*2978 FILLER_33_249
*2979 FILLER_33_257
*2980 FILLER_33_265
*2981 FILLER_33_273
*2982 FILLER_33_277
*2983 FILLER_33_279
*2984 FILLER_33_301
*2985 FILLER_33_309
*2986 FILLER_33_317
*2987 FILLER_33_321
*2988 FILLER_33_325
*2989 FILLER_33_333
*2990 FILLER_34_3
*2991 FILLER_34_11
*2992 FILLER_34_15
*2993 FILLER_34_23
*2994 FILLER_34_27
*2995 FILLER_34_29
*2996 FILLER_34_31
*2997 FILLER_34_39
*2998 FILLER_34_43
*2999 FILLER_34_48
*3000 FILLER_34_56
*3001 FILLER_34_64
*3002 FILLER_34_72
*3003 FILLER_34_91
*3004 FILLER_34_99
*3005 FILLER_34_107
*3006 FILLER_34_111
*3007 FILLER_34_113
*3008 FILLER_34_121
*3009 FILLER_34_123
*3010 FILLER_34_135
*3011 FILLER_34_139
*3012 FILLER_34_148
*3013 FILLER_34_156
*3014 FILLER_34_164
*3015 FILLER_34_172
*3016 FILLER_34_183
*3017 FILLER_34_191
*3018 FILLER_34_199
*3019 FILLER_34_207
*3020 FILLER_34_209
*3021 FILLER_34_227
*3022 FILLER_34_231
*3023 FILLER_34_233
*3024 FILLER_34_257
*3025 FILLER_34_265
*3026 FILLER_34_269
*3027 FILLER_34_271
*3028 FILLER_34_279
*3029 FILLER_34_303
*3030 FILLER_34_311
*3031 FILLER_34_313
*3032 FILLER_34_321
*3033 FILLER_34_329
*3034 FILLER_34_331
*3035 FILLER_35_3
*3036 FILLER_35_11
*3037 FILLER_35_19
*3038 FILLER_35_27
*3039 FILLER_35_51
*3040 FILLER_35_59
*3041 FILLER_35_61
*3042 FILLER_35_65
*3043 FILLER_35_67
*3044 FILLER_35_72
*3045 FILLER_35_80
*3046 FILLER_35_97
*3047 FILLER_35_105
*3048 FILLER_35_113
*3049 FILLER_35_117
*3050 FILLER_35_119
*3051 FILLER_35_121
*3052 FILLER_35_129
*3053 FILLER_35_137
*3054 FILLER_35_145
*3055 FILLER_35_153
*3056 FILLER_35_161
*3057 FILLER_35_169
*3058 FILLER_35_177
*3059 FILLER_35_179
*3060 FILLER_35_181
*3061 FILLER_35_189
*3062 FILLER_35_197
*3063 FILLER_35_205
*3064 FILLER_35_213
*3065 FILLER_35_221
*3066 FILLER_35_229
*3067 FILLER_35_237
*3068 FILLER_35_239
*3069 FILLER_35_241
*3070 FILLER_35_269
*3071 FILLER_35_277
*3072 FILLER_35_285
*3073 FILLER_35_293
*3074 FILLER_35_297
*3075 FILLER_35_299
*3076 FILLER_35_301
*3077 FILLER_35_309
*3078 FILLER_35_317
*3079 FILLER_35_325
*3080 FILLER_35_333
*3081 FILLER_36_3
*3082 FILLER_36_11
*3083 FILLER_36_24
*3084 FILLER_36_28
*3085 FILLER_36_38
*3086 FILLER_36_46
*3087 FILLER_36_54
*3088 FILLER_36_62
*3089 FILLER_36_70
*3090 FILLER_36_78
*3091 FILLER_36_86
*3092 FILLER_36_97
*3093 FILLER_36_99
*3094 FILLER_36_103
*3095 FILLER_36_114
*3096 FILLER_36_122
*3097 FILLER_36_130
*3098 FILLER_36_148
*3099 FILLER_36_151
*3100 FILLER_36_153
*3101 FILLER_36_170
*3102 FILLER_36_178
*3103 FILLER_36_193
*3104 FILLER_36_201
*3105 FILLER_36_209
*3106 FILLER_36_214
*3107 FILLER_36_237
*3108 FILLER_36_245
*3109 FILLER_36_249
*3110 FILLER_36_257
*3111 FILLER_36_265
*3112 FILLER_36_269
*3113 FILLER_36_271
*3114 FILLER_36_279
*3115 FILLER_36_283
*3116 FILLER_36_304
*3117 FILLER_36_309
*3118 FILLER_36_317
*3119 FILLER_36_325
*3120 FILLER_36_329
*3121 FILLER_36_331
*3122 FILLER_37_3
*3123 FILLER_37_11
*3124 FILLER_37_13
*3125 FILLER_37_27
*3126 FILLER_37_35
*3127 FILLER_37_50
*3128 FILLER_37_58
*3129 FILLER_37_61
*3130 FILLER_37_73
*3131 FILLER_37_115
*3132 FILLER_37_121
*3133 FILLER_37_125
*3134 FILLER_37_148
*3135 FILLER_37_159
*3136 FILLER_37_167
*3137 FILLER_37_176
*3138 FILLER_37_189
*3139 FILLER_37_193
*3140 FILLER_37_210
*3141 FILLER_37_217
*3142 FILLER_37_233
*3143 FILLER_37_237
*3144 FILLER_37_239
*3145 FILLER_37_241
*3146 FILLER_37_248
*3147 FILLER_37_308
*3148 FILLER_37_313
*3149 FILLER_37_322
*3150 FILLER_37_330
*3151 FILLER_37_334
*3152 FILLER_38_3
*3153 FILLER_38_11
*3154 FILLER_38_15
*3155 FILLER_38_20
*3156 FILLER_38_28
*3157 FILLER_38_31
*3158 FILLER_38_39
*3159 FILLER_38_47
*3160 FILLER_38_55
*3161 FILLER_38_59
*3162 FILLER_38_61
*3163 FILLER_38_69
*3164 FILLER_38_77
*3165 FILLER_38_85
*3166 FILLER_38_89
*3167 FILLER_38_91
*3168 FILLER_38_99
*3169 FILLER_38_107
*3170 FILLER_38_115
*3171 FILLER_38_119
*3172 FILLER_38_121
*3173 FILLER_38_129
*3174 FILLER_38_137
*3175 FILLER_38_145
*3176 FILLER_38_149
*3177 FILLER_38_151
*3178 FILLER_38_159
*3179 FILLER_38_167
*3180 FILLER_38_175
*3181 FILLER_38_179
*3182 FILLER_38_181
*3183 FILLER_38_189
*3184 FILLER_38_197
*3185 FILLER_38_201
*3186 FILLER_38_209
*3187 FILLER_38_211
*3188 FILLER_38_219
*3189 FILLER_38_227
*3190 FILLER_38_235
*3191 FILLER_38_239
*3192 FILLER_38_241
*3193 FILLER_38_249
*3194 FILLER_38_257
*3195 FILLER_38_265
*3196 FILLER_38_269
*3197 FILLER_38_271
*3198 FILLER_38_279
*3199 FILLER_38_287
*3200 FILLER_38_295
*3201 FILLER_38_299
*3202 FILLER_38_301
*3203 FILLER_38_309
*3204 FILLER_38_317
*3205 FILLER_38_325
*3206 FILLER_38_329
*3207 FILLER_38_331

*PORTS
clk I
ena I
rst_n I
ui_in[0] I
ui_in[1] I
ui_in[2] I
ui_in[3] I
ui_in[4] I
ui_in[5] I
ui_in[6] I
ui_in[7] I
uio_in[0] I
uio_in[1] I
uio_in[2] I
uio_in[3] I
uio_in[4] I
uio_in[5] I
uio_in[6] I
uio_in[7] I
uio_oe[0] O
uio_oe[1] O
uio_oe[2] O
uio_oe[3] O
uio_oe[4] O
uio_oe[5] O
uio_oe[6] O
uio_oe[7] O
uio_out[0] O
uio_out[1] O
uio_out[2] O
uio_out[3] O
uio_out[4] O
uio_out[5] O
uio_out[6] O
uio_out[7] O
uo_out[0] O
uo_out[1] O
uo_out[2] O
uo_out[3] O
uo_out[4] O
uo_out[5] O
uo_out[6] O
uo_out[7] O

*D_NET *1 0.00025903
*CONN
*I *1179:D I *D sky130_fd_sc_hd__dfxtp_1
*I *643:Y O *D sky130_fd_sc_hd__o32ai_1
*CAP
1 *1179:D 0.000129515
2 *643:Y 0.000129515
3 *1179:D *642:SLEEP 0
4 *1179:D *643:A2 0
5 *1179:D *1179:CLK 0
6 *1179:D *611:46 0
7 *1179:D *611:55 0
*RES
1 *643:Y *1179:D 30.4036 
*END

*D_NET *2 0.000510381
*CONN
*I *1180:D I *D sky130_fd_sc_hd__dfxtp_1
*I *638:Y O *D sky130_fd_sc_hd__o21ai_0
*CAP
1 *1180:D 0.00025519
2 *638:Y 0.00025519
3 *1180:D *635:A 0
4 *1180:D *638:B1 0
*RES
1 *638:Y *1180:D 23.9259 
*END

*D_NET *3 0.000335954
*CONN
*I *1181:D I *D sky130_fd_sc_hd__dfxtp_1
*I *630:Y O *D sky130_fd_sc_hd__o21ai_0
*CAP
1 *1181:D 0.000167977
2 *630:Y 0.000167977
3 *1181:D *620:A 0
4 *1181:D *620:B 0
5 *1181:D *630:B1 0
6 *1181:D *637:A1 0
7 *1181:D *114:9 0
8 *1181:D *559:8 0
9 *1181:D *611:46 0
*RES
1 *630:Y *1181:D 31.1759 
*END

*D_NET *4 0.000502163
*CONN
*I *1182:D I *D sky130_fd_sc_hd__dfxtp_1
*I *641:Y O *D sky130_fd_sc_hd__o21ai_0
*CAP
1 *1182:D 0.000251081
2 *641:Y 0.000251081
3 *1182:D *1504:A 0
4 *1182:D *455:344 0
5 *1182:D *560:10 0
*RES
1 *641:Y *1182:D 32.9973 
*END

*D_NET *5 0.00138905
*CONN
*I *1081:D I *D sky130_fd_sc_hd__dfstp_2
*I *728:Y O *D sky130_fd_sc_hd__nand2_1
*CAP
1 *1081:D 0.000694524
2 *728:Y 0.000694524
3 *1081:D *1178:CLK 0
4 *1081:D *1178:RESET_B 0
5 *1081:D *1190:D 0
6 *1081:D *455:382 0
7 *1081:D *472:8 0
8 *1081:D *552:7 0
9 *1081:D *571:11 0
10 *1081:D *614:40 0
11 *1081:D *614:43 0
*RES
1 *728:Y *1081:D 42.5107 
*END

*D_NET *6 0.000422415
*CONN
*I *1082:D I *D sky130_fd_sc_hd__dfrtp_1
*I *769:X O *D sky130_fd_sc_hd__o22a_1
*CAP
1 *1082:D 0.000211207
2 *769:X 0.000211207
3 *1082:D *1084:D 0
4 *1082:D *500:8 0
*RES
1 *769:X *1082:D 32.3143 
*END

*D_NET *7 0.00242408
*CONN
*I *1083:D I *D sky130_fd_sc_hd__dfrtp_1
*I *772:Y O *D sky130_fd_sc_hd__o21ai_0
*CAP
1 *1083:D 0.00121204
2 *772:Y 0.00121204
3 *1083:D *729:A 0
4 *1083:D *756:B 0
5 *1083:D *204:1010 0
6 *1083:D *204:1023 0
7 *1083:D *246:574 0
8 *1083:D *494:9 0
9 *1083:D *494:35 0
*RES
1 *772:Y *1083:D 40.8057 
*END

*D_NET *8 0.00204143
*CONN
*I *1084:D I *D sky130_fd_sc_hd__dfrtp_1
*I *775:Y O *D sky130_fd_sc_hd__o21ai_0
*CAP
1 *1084:D 0.00102071
2 *775:Y 0.00102071
3 *1084:D *769:B1 0
4 *1084:D *769:B2 0
5 *1084:D *770:A 0
6 *1084:D *779:B 0
7 *1084:D *1052:A 0
8 *1084:D *203:955 0
9 *1084:D *203:988 0
10 *1084:D *203:989 0
11 *1084:D *203:1058 0
12 *1084:D *204:1056 0
13 *1084:D *497:14 0
14 *1084:D *497:43 0
15 *1084:D *499:17 0
16 *1084:D *500:8 0
17 *1082:D *1084:D 0
*RES
1 *775:Y *1084:D 42.9198 
*END

*D_NET *9 0.00161294
*CONN
*I *1085:D I *D sky130_fd_sc_hd__dfrtp_1
*I *778:Y O *D sky130_fd_sc_hd__o21ai_0
*CAP
1 *1085:D 0.000806468
2 *778:Y 0.000806468
3 *1085:D *769:B1 0
4 *1085:D *772:A1 0
5 *1085:D *772:B1 0
6 *1085:D *778:A1 0
7 *1085:D *498:13 0
8 *1085:D *500:8 0
*RES
1 *778:Y *1085:D 44.5643 
*END

*D_NET *10 0.00199837
*CONN
*I *1086:D I *D sky130_fd_sc_hd__dfrtp_1
*I *781:Y O *D sky130_fd_sc_hd__o21ai_0
*CAP
1 *1086:D 0
2 *781:Y 0.000999187
3 *10:14 0.000999187
4 *10:14 *780:A 0
5 *10:14 *783:B 0
6 *10:14 *784:A1 0
7 *10:14 *500:48 0
*RES
1 *781:Y *10:14 48.6393 
2 *10:14 *1086:D 9.3 
*END

*D_NET *11 0.00222377
*CONN
*I *1087:D I *D sky130_fd_sc_hd__dfrtp_1
*I *784:Y O *D sky130_fd_sc_hd__o21ai_0
*CAP
1 *1087:D 0.00111189
2 *784:Y 0.00111189
3 *1087:D *783:A 0
4 *1087:D *784:B1 0
5 *1087:D *785:B 0
6 *1087:D *787:A2 0
7 *1087:D *1086:RESET_B 0
8 *1087:D *1087:CLK 0
9 *1087:D *1087:RESET_B 0
10 *1087:D *1088:D 0
11 *1087:D *499:17 0
12 *1087:D *499:39 0
*RES
1 *784:Y *1087:D 41.7429 
*END

*D_NET *12 0.000958996
*CONN
*I *1088:D I *D sky130_fd_sc_hd__dfrtp_1
*I *787:Y O *D sky130_fd_sc_hd__o21ai_0
*CAP
1 *1088:D 0.000479498
2 *787:Y 0.000479498
3 *1088:D *783:B 0
4 *1088:D *785:B 0
5 *1088:D *787:A1 0
6 *1088:D *787:A2 0
7 *1088:D *787:B1 0
8 *1088:D *1088:RESET_B 0
9 *1088:D *499:17 0
10 *1088:D *501:7 0
11 *1087:D *1088:D 0
*RES
1 *787:Y *1088:D 37.8143 
*END

*D_NET *13 0.00213248
*CONN
*I *1089:D I *D sky130_fd_sc_hd__dfrtp_1
*I *790:Y O *D sky130_fd_sc_hd__o21ai_0
*CAP
1 *1089:D 0
2 *790:Y 0.00106624
3 *13:11 0.00106624
4 *13:11 *721:C2 0
5 *13:11 *753:B 0
6 *13:11 *753:C 0
7 *13:11 *789:B 0
8 *13:11 *1116:RESET_B 0
9 *13:11 *455:389 0
10 *13:11 *615:13 0
11 *13:11 *615:77 0
*RES
1 *790:Y *13:11 40.8 
2 *13:11 *1089:D 9.3 
*END

*D_NET *14 0.000641622
*CONN
*I *1090:D I *D sky130_fd_sc_hd__dfrtp_1
*I *793:Y O *D sky130_fd_sc_hd__o21ai_0
*CAP
1 *1090:D 0.000320811
2 *793:Y 0.000320811
3 *1090:D *793:A1 0
4 *1090:D *455:428 0
5 *1090:D *501:10 0
*RES
1 *793:Y *1090:D 34.4036 
*END

*D_NET *15 0.000741479
*CONN
*I *1091:D I *D sky130_fd_sc_hd__dfrtp_1
*I *796:Y O *D sky130_fd_sc_hd__o21ai_0
*CAP
1 *1091:D 0.00037074
2 *796:Y 0.00037074
3 *1091:D *796:B1 0
4 *1091:D *864:A 0
5 *1091:D *1090:CLK 0
6 *1091:D *1097:RESET_B 0
7 *1091:D *473:8 0
8 *1091:D *615:35 0
*RES
1 *796:Y *1091:D 35.5107 
*END

*D_NET *16 0.00234612
*CONN
*I *1092:D I *D sky130_fd_sc_hd__dfrtp_1
*I *799:Y O *D sky130_fd_sc_hd__o21ai_0
*CAP
1 *1092:D 0
2 *799:Y 0.00117306
3 *16:11 0.00117306
4 *16:11 *799:A2 0
5 *16:11 *806:A 0
6 *16:11 *807:A 0
7 *16:11 *808:A1 0
8 *16:11 *808:A2 0
9 *16:11 *1095:D 0
10 *16:11 *1096:D 0
11 *16:11 *1176:RESET_B 0
12 *16:11 *246:100 0
13 *16:11 *455:473 0
14 *16:11 *455:477 0
15 *16:11 *455:479 0
16 *16:11 *455:481 0
17 *16:11 *455:483 0
18 *16:11 *481:8 0
19 *16:11 *492:12 0
20 *16:11 *613:76 0
*RES
1 *799:Y *16:11 43.8 
2 *16:11 *1092:D 9.3 
*END

*D_NET *17 0.000625014
*CONN
*I *1093:D I *D sky130_fd_sc_hd__dfrtp_1
*I *802:Y O *D sky130_fd_sc_hd__o21ai_0
*CAP
1 *1093:D 0.000312507
2 *802:Y 0.000312507
3 *1093:D *31:12 0
*RES
1 *802:Y *1093:D 34.7607 
*END

*D_NET *18 0.000837866
*CONN
*I *1094:D I *D sky130_fd_sc_hd__dfrtp_1
*I *805:Y O *D sky130_fd_sc_hd__o21ai_0
*CAP
1 *1094:D 0.000418933
2 *805:Y 0.000418933
3 *1094:D *835:A1 0
4 *1094:D *1108:D 0
5 *1094:D *240:6 0
*RES
1 *805:Y *1094:D 37.0643 
*END

*D_NET *19 0.00107402
*CONN
*I *1095:D I *D sky130_fd_sc_hd__dfrtp_1
*I *808:Y O *D sky130_fd_sc_hd__o21ai_0
*CAP
1 *1095:D 0.000537009
2 *808:Y 0.000537009
3 *1095:D *1096:D 0
4 *16:11 *1095:D 0
*RES
1 *808:Y *1095:D 39.5286 
*END

*D_NET *20 0.0017883
*CONN
*I *1096:D I *D sky130_fd_sc_hd__dfrtp_1
*I *811:Y O *D sky130_fd_sc_hd__o21ai_0
*CAP
1 *1096:D 0.000894151
2 *811:Y 0.000894151
3 *1096:D *806:B 0
4 *1096:D *811:A1 0
5 *1096:D *811:A2 0
6 *1096:D *821:A 0
7 *1096:D *455:477 0
8 *1096:D *481:8 0
9 *1096:D *492:12 0
10 *1095:D *1096:D 0
11 *16:11 *1096:D 0
*RES
1 *811:Y *1096:D 47.6357 
*END

*D_NET *21 0.000825799
*CONN
*I *1097:D I *D sky130_fd_sc_hd__dfrtp_1
*I *814:Y O *D sky130_fd_sc_hd__o21ai_0
*CAP
1 *1097:D 0.0004129
2 *814:Y 0.0004129
3 *1097:D *814:B1 0
4 *1097:D *815:A 0
5 *1097:D *246:83 0
6 *1097:D *455:438 0
*RES
1 *814:Y *1097:D 36.35 
*END

*D_NET *22 0.0013536
*CONN
*I *1098:D I *D sky130_fd_sc_hd__dfrtp_1
*I *817:Y O *D sky130_fd_sc_hd__o21ai_0
*CAP
1 *1098:D 0.0006768
2 *817:Y 0.0006768
3 *1098:D *816:B 0
4 *1098:D *817:A2 0
5 *1098:D *817:B1 0
6 *1098:D *861:A 0
7 *1098:D *862:B 0
8 *1098:D *1098:RESET_B 0
9 *1098:D *204:88 0
*RES
1 *817:Y *1098:D 32.725 
*END

*D_NET *23 0.000962956
*CONN
*I *1099:D I *D sky130_fd_sc_hd__dfrtp_1
*I *820:Y O *D sky130_fd_sc_hd__o21ai_0
*CAP
1 *1099:D 0.000481478
2 *820:Y 0.000481478
3 *1099:D *806:A 0
4 *1099:D *819:B 0
5 *1099:D *820:B1 0
6 *1099:D *1100:D 0
7 *1099:D *528:11 0
*RES
1 *820:Y *1099:D 38.3857 
*END

*D_NET *24 0.00198935
*CONN
*I *1100:D I *D sky130_fd_sc_hd__dfrtp_1
*I *823:Y O *D sky130_fd_sc_hd__o21ai_0
*CAP
1 *1100:D 0.000994677
2 *823:Y 0.000994677
3 *1100:D *806:A 0
4 *1100:D *820:A1 0
5 *1100:D *33:11 0
6 *1100:D *203:738 0
7 *1100:D *203:746 0
8 *1100:D *528:11 0
9 *1100:D *613:30 0
10 *1099:D *1100:D 0
*RES
1 *823:Y *1100:D 49.5464 
*END

*D_NET *25 0.000955863
*CONN
*I *1101:D I *D sky130_fd_sc_hd__dfrtp_1
*I *826:Y O *D sky130_fd_sc_hd__o21ai_0
*CAP
1 *1101:D 0.000477932
2 *826:Y 0.000477932
3 *1101:D *1101:CLK 0
4 *1101:D *99:14 0
5 *1101:D *484:26 0
*RES
1 *826:Y *1101:D 38.2964 
*END

*D_NET *26 0.00188472
*CONN
*I *1102:D I *D sky130_fd_sc_hd__dfrtp_1
*I *829:Y O *D sky130_fd_sc_hd__o21ai_0
*CAP
1 *1102:D 0.00094236
2 *829:Y 0.00094236
3 *1102:D *829:A2 0
4 *1102:D *1158:RESET_B 0
5 *1102:D *1175:RESET_B 0
6 *1102:D *241:8 0
7 *1102:D *455:625 0
8 *1102:D *455:627 0
9 *1102:D *487:22 0
10 *1102:D *489:32 0
11 *1102:D *489:43 0
12 *1102:D *527:22 0
*RES
1 *829:Y *1102:D 48.8143 
*END

*D_NET *27 0.000832703
*CONN
*I *1103:D I *D sky130_fd_sc_hd__dfrtp_1
*I *832:Y O *D sky130_fd_sc_hd__o21ai_0
*CAP
1 *1103:D 0.000416351
2 *832:Y 0.000416351
3 *1103:D *800:B 0
4 *1103:D *802:A1 0
5 *1103:D *802:A2 0
6 *1103:D *31:12 0
7 *1103:D *485:12 0
8 *1103:D *486:9 0
*RES
1 *832:Y *1103:D 36.8143 
*END

*D_NET *28 0.0012486
*CONN
*I *1104:D I *D sky130_fd_sc_hd__dfrtp_1
*I *835:Y O *D sky130_fd_sc_hd__o21ai_0
*CAP
1 *1104:D 0.000624298
2 *835:Y 0.000624298
3 *1104:D *804:A 0
4 *1104:D *1108:D 0
5 *1104:D *455:579 0
6 *1104:D *476:20 0
*RES
1 *835:Y *1104:D 41.5464 
*END

*D_NET *29 0.0028142
*CONN
*I *1105:D I *D sky130_fd_sc_hd__dfrtp_1
*I *838:Y O *D sky130_fd_sc_hd__o21ai_0
*CAP
1 *1105:D 0
2 *838:Y 0.0014071
3 *29:8 0.0014071
4 *29:8 *803:B 0
5 *29:8 *831:A 0
6 *29:8 *838:A2 0
7 *29:8 *1049:A 0
8 *29:8 *1102:RESET_B 0
9 *29:8 *31:12 0
10 *29:8 *204:846 0
11 *29:8 *475:8 0
12 *29:8 *477:33 0
13 *29:8 *486:31 0
14 *29:8 *488:12 0
15 *29:8 *488:20 0
16 *29:8 *490:8 0
*RES
1 *838:Y *29:8 45.6393 
2 *29:8 *1105:D 13.8 
*END

*D_NET *30 0.00267876
*CONN
*I *1106:D I *D sky130_fd_sc_hd__dfrtp_1
*I *841:Y O *D sky130_fd_sc_hd__o21ai_0
*CAP
1 *1106:D 0
2 *841:Y 0.00133938
3 *30:11 0.00133938
4 *30:11 *841:A1 0
5 *30:11 *841:A2 0
6 *30:11 *1004:A 0
7 *30:11 *1005:B 0
8 *30:11 *1047:B 0
9 *30:11 *1174:D 0
10 *30:11 *85:16 0
11 *30:11 *204:214 0
12 *30:11 *246:435 0
13 *30:11 *489:43 0
14 *30:11 *510:7 0
15 *30:11 *510:8 0
16 *30:11 *525:38 0
17 *30:11 *527:22 0
*RES
1 *841:Y *30:11 48.1929 
2 *30:11 *1106:D 9.3 
*END

*D_NET *31 0.00211187
*CONN
*I *1107:D I *D sky130_fd_sc_hd__dfrtp_1
*I *844:Y O *D sky130_fd_sc_hd__nand2_1
*CAP
1 *1107:D 0
2 *844:Y 0.00105593
3 *31:12 0.00105593
4 *31:12 *800:A 0
5 *31:12 *802:A1 0
6 *31:12 *802:A2 0
7 *31:12 *838:A1 0
8 *31:12 *1103:CLK 0
9 *31:12 *204:195 0
10 *31:12 *246:467 0
11 *31:12 *475:8 0
12 *31:12 *485:12 0
13 *31:12 *490:12 0
14 *31:12 *612:10 0
15 *1093:D *31:12 0
16 *1103:D *31:12 0
17 *29:8 *31:12 0
*RES
1 *844:Y *31:12 42.1571 
2 *31:12 *1107:D 9.3 
*END

*D_NET *32 0.00331128
*CONN
*I *1108:D I *D sky130_fd_sc_hd__dfrtp_1
*I *847:Y O *D sky130_fd_sc_hd__o21ai_0
*CAP
1 *1108:D 0.00146755
2 *847:Y 0.000188087
3 *32:10 0.00165564
4 *1108:D *804:A 0
5 *1108:D *821:A 0
6 *1108:D *833:B 0
7 *1108:D *835:A1 0
8 *1108:D *847:A1 0
9 *1108:D *1094:CLK 0
10 *1108:D *1161:RESET_B 0
11 *1108:D *204:156 0
12 *1108:D *240:6 0
13 *1108:D *246:493 0
14 *1108:D *455:574 0
15 *1108:D *455:579 0
16 *1108:D *476:20 0
17 *1108:D *481:37 0
18 *1108:D *613:12 0
19 *32:10 *847:A1 0
20 *32:10 *848:B 0
21 *32:10 *204:156 0
22 *1094:D *1108:D 0
23 *1104:D *1108:D 0
*RES
1 *847:Y *32:10 18.0545 
2 *32:10 *1108:D 46.9205 
*END

*D_NET *33 0.00350302
*CONN
*I *1109:D I *D sky130_fd_sc_hd__dfrtp_1
*I *850:Y O *D sky130_fd_sc_hd__o21ai_0
*CAP
1 *1109:D 0
2 *850:Y 6.50276e-05
3 *33:11 0.00168648
4 *33:7 0.00175151
5 *33:7 *848:A 0
6 *33:7 *850:A2 0
7 *33:11 *818:A 0
8 *33:11 *821:A 0
9 *33:11 *848:B 0
10 *33:11 *849:A 0
11 *33:11 *850:A1 0
12 *33:11 *455:466 0
13 *33:11 *455:543 0
14 *33:11 *481:8 0
15 *33:11 *481:37 0
16 *33:11 *492:12 0
17 *33:11 *528:11 0
18 *1100:D *33:11 0
*RES
1 *850:Y *33:7 15.1571 
2 *33:7 *33:11 42.5357 
3 *33:11 *1109:D 9.3 
*END

*D_NET *34 0.00280028
*CONN
*I *1110:D I *D sky130_fd_sc_hd__dfrtp_1
*I *853:Y O *D sky130_fd_sc_hd__nand2_1
*CAP
1 *1110:D 0.00140014
2 *853:Y 0.00140014
3 *1110:D *797:A 0
4 *1110:D *204:917 0
5 *1110:D *455:469 0
6 *1110:D *474:13 0
7 *1110:D *477:33 0
8 *1110:D *493:39 0
9 *1110:D *613:76 0
10 *1110:D *613:87 0
*RES
1 *853:Y *1110:D 49.2762 
*END

*D_NET *35 0.00127371
*CONN
*I *1111:D I *D sky130_fd_sc_hd__dfrtp_1
*I *856:Y O *D sky130_fd_sc_hd__nand2_1
*CAP
1 *1111:D 0.000636853
2 *856:Y 0.000636853
3 *1111:D *797:A 0
4 *1111:D *798:A 0
5 *1111:D *799:A2 0
6 *1111:D *799:B1 0
7 *1111:D *810:A 0
8 *1111:D *854:B 0
9 *1111:D *1111:RESET_B 0
10 *1111:D *36:11 0
11 *1111:D *203:788 0
12 *1111:D *246:99 0
13 *1111:D *495:11 0
*RES
1 *856:Y *1111:D 41.4036 
*END

*D_NET *36 0.00241916
*CONN
*I *1112:D I *D sky130_fd_sc_hd__dfrtp_1
*I *859:Y O *D sky130_fd_sc_hd__nand2_1
*CAP
1 *1112:D 0
2 *859:Y 0.00120958
3 *36:11 0.00120958
4 *36:11 *810:A 0
5 *36:11 *1112:RESET_B 0
6 *36:11 *478:18 0
7 *36:11 *482:12 0
8 *36:11 *492:12 0
9 *36:11 *492:39 0
10 *1111:D *36:11 0
*RES
1 *859:Y *36:11 44.9964 
2 *36:11 *1112:D 9.3 
*END

*D_NET *37 0.0014549
*CONN
*I *1113:D I *D sky130_fd_sc_hd__dfrtp_1
*I *862:Y O *D sky130_fd_sc_hd__nand2_1
*CAP
1 *1113:D 0.000727451
2 *862:Y 0.000727451
3 *1113:D *812:B 0
4 *1113:D *817:A2 0
5 *1113:D *860:B 0
6 *1113:D *861:A 0
7 *1113:D *1113:RESET_B 0
8 *1113:D *203:1017 0
9 *1113:D *246:89 0
*RES
1 *862:Y *1113:D 42.9393 
*END

*D_NET *38 0.00198555
*CONN
*I *1114:D I *D sky130_fd_sc_hd__dfrtp_1
*I *865:Y O *D sky130_fd_sc_hd__o21ai_0
*CAP
1 *1114:D 0.000992773
2 *865:Y 0.000992773
3 *1114:D *863:A 0
4 *1114:D *203:1017 0
5 *1114:D *246:83 0
6 *1114:D *479:11 0
7 *1114:D *503:29 0
8 *1114:D *536:11 0
9 *1114:D *543:11 0
10 *1114:D *615:13 0
*RES
1 *865:Y *1114:D 39.2464 
*END

*D_NET *39 0.000353455
*CONN
*I *1115:D I *D sky130_fd_sc_hd__dfrtp_1
*I *868:Y O *D sky130_fd_sc_hd__nand2_1
*CAP
1 *1115:D 0.000176727
2 *868:Y 0.000176727
3 *1115:D *868:A 0
4 *1115:D *868:B 0
5 *1115:D *1116:RESET_B 0
6 *1115:D *534:16 0
7 *1115:D *615:13 0
*RES
1 *868:Y *1115:D 31.4214 
*END

*D_NET *40 0.000471413
*CONN
*I *1116:D I *D sky130_fd_sc_hd__dfrtp_1
*I *871:Y O *D sky130_fd_sc_hd__nand2_1
*CAP
1 *1116:D 0.000235707
2 *871:Y 0.000235707
3 *1116:D *664:B2 0
4 *1116:D *246:34 0
*RES
1 *871:Y *1116:D 32.6536 
*END

*D_NET *41 0.000326713
*CONN
*I *1117:D I *D sky130_fd_sc_hd__dfrtp_1
*I *874:Y O *D sky130_fd_sc_hd__nand2_1
*CAP
1 *1117:D 0.000163356
2 *874:Y 0.000163356
3 *1117:D *671:A1 0
4 *1117:D *1128:CLK 0
5 *1117:D *546:26 0
*RES
1 *874:Y *1117:D 31.1179 
*END

*D_NET *42 0.00289499
*CONN
*I *1118:D I *D sky130_fd_sc_hd__dfrtp_1
*I *877:Y O *D sky130_fd_sc_hd__o21ai_0
*CAP
1 *1118:D 0.0014475
2 *877:Y 0.0014475
3 *1118:D *203:98 0
4 *1118:D *246:328 0
5 *1118:D *455:263 0
6 *1118:D *516:18 0
7 *1118:D *540:14 0
8 *1118:D *548:19 0
*RES
1 *877:Y *1118:D 43.4351 
*END

*D_NET *43 0.00491132
*CONN
*I *1119:D I *D sky130_fd_sc_hd__dfrtp_1
*I *880:Y O *D sky130_fd_sc_hd__nand2_1
*CAP
1 *1119:D 0.00245566
2 *880:Y 0.00245566
3 *1119:D *663:B2 0
4 *1119:D *687:B2 0
5 *1119:D *881:A 0
6 *1119:D *1065:A2 0
7 *1119:D *203:150 0
8 *1119:D *463:21 0
9 *1119:D *537:36 0
10 *1119:D *542:39 0
*RES
1 *880:Y *1119:D 47.5615 
*END

*D_NET *44 0.00274121
*CONN
*I *1120:D I *D sky130_fd_sc_hd__dfrtp_1
*I *883:Y O *D sky130_fd_sc_hd__nand2_1
*CAP
1 *1120:D 0.0013706
2 *883:Y 0.0013706
3 *1120:D *758:B 0
4 *1120:D *1013:A 0
5 *1120:D *1124:D 0
6 *1120:D *537:38 0
7 *1120:D *550:19 0
8 *1120:D *610:45 0
*RES
1 *883:Y *1120:D 43.1469 
*END

*D_NET *45 0.00319188
*CONN
*I *1121:D I *D sky130_fd_sc_hd__dfrtp_1
*I *886:Y O *D sky130_fd_sc_hd__o21ai_0
*CAP
1 *1121:D 0.00159594
2 *886:Y 0.00159594
3 *1121:D *758:B 0
4 *1121:D *1123:D 0
5 *1121:D *113:35 0
6 *1121:D *537:38 0
*RES
1 *886:Y *1121:D 40.6418 
*END

*D_NET *46 0.00290057
*CONN
*I *1122:D I *D sky130_fd_sc_hd__dfrtp_1
*I *889:Y O *D sky130_fd_sc_hd__o21ai_0
*CAP
1 *1122:D 0.00145029
2 *889:Y 0.00145029
3 *1122:D *889:A2 0
4 *1122:D *889:B1 0
5 *1122:D *1124:RESET_B 0
6 *1122:D *551:28 0
7 *1122:D *551:38 0
8 *1122:D *610:57 0
9 *1122:D *611:22 0
10 *1122:D *611:39 0
*RES
1 *889:Y *1122:D 48.9929 
*END

*D_NET *47 0.00458608
*CONN
*I *1123:D I *D sky130_fd_sc_hd__dfrtp_1
*I *892:Y O *D sky130_fd_sc_hd__o21ai_0
*CAP
1 *1123:D 0.00229304
2 *892:Y 0.00229304
3 *1123:D *663:B2 0
4 *1123:D *890:B 0
5 *1123:D *1124:D 0
6 *1123:D *113:35 0
7 *1123:D *246:348 0
8 *1123:D *537:38 0
9 *1123:D *550:12 0
10 *1123:D *551:28 0
11 *1123:D *559:11 0
12 *1123:D *567:43 0
13 *1123:D *567:71 0
14 *1123:D *611:60 0
15 *1121:D *1123:D 0
*RES
1 *892:Y *1123:D 44.6973 
*END

*D_NET *48 0.00190528
*CONN
*I *1124:D I *D sky130_fd_sc_hd__dfrtp_1
*I *895:Y O *D sky130_fd_sc_hd__nand2_1
*CAP
1 *1124:D 0.000952638
2 *895:Y 0.000952638
3 *1124:D *1013:A 0
4 *1124:D *537:38 0
5 *1124:D *550:12 0
6 *1120:D *1124:D 0
7 *1123:D *1124:D 0
*RES
1 *895:Y *1124:D 38.3356 
*END

*D_NET *49 0.00242009
*CONN
*I *1125:D I *D sky130_fd_sc_hd__dfrtp_1
*I *898:Y O *D sky130_fd_sc_hd__nand2_1
*CAP
1 *1125:D 0.00121004
2 *898:Y 0.00121004
3 *1125:D *881:A 0
4 *1125:D *898:B 0
5 *1125:D *1013:A 0
6 *1125:D *1125:CLK 0
7 *1125:D *538:15 0
8 *1125:D *541:21 0
9 *1125:D *548:19 0
10 *1125:D *548:21 0
11 *1125:D *550:19 0
12 *1125:D *610:45 0
*RES
1 *898:Y *1125:D 42.2132 
*END

*D_NET *50 0.00360133
*CONN
*I *1126:D I *D sky130_fd_sc_hd__dfrtp_1
*I *901:Y O *D sky130_fd_sc_hd__o21ai_0
*CAP
1 *1126:D 0
2 *901:Y 0.00180066
3 *50:9 0.00180066
4 *50:9 *757:D 0
5 *50:9 *1018:A1 0
6 *50:9 *1165:CLK 0
7 *50:9 *246:316 0
8 *50:9 *610:137 0
*RES
1 *901:Y *50:9 46.9429 
2 *50:9 *1126:D 9.3 
*END

*D_NET *51 0.00373481
*CONN
*I *1127:D I *D sky130_fd_sc_hd__dfrtp_1
*I *904:Y O *D sky130_fd_sc_hd__nand2_1
*CAP
1 *1127:D 0
2 *904:Y 0.0018674
3 *51:17 0.0018674
4 *51:17 *904:A 0
5 *51:17 *1120:CLK 0
6 *51:17 *1120:RESET_B 0
7 *51:17 *1164:D 0
8 *51:17 *1508:A 0
9 *51:17 *611:94 0
*RES
1 *904:Y *51:17 48.4607 
2 *51:17 *1127:D 9.3 
*END

*D_NET *52 0.00465497
*CONN
*I *1128:D I *D sky130_fd_sc_hd__dfrtp_1
*I *907:Y O *D sky130_fd_sc_hd__o21ai_0
*CAP
1 *1128:D 0.000189949
2 *907:Y 5.89896e-05
3 *52:12 0.00226849
4 *52:8 0.00213753
5 *1128:D *1128:CLK 0
6 *1128:D *1128:RESET_B 0
7 *1128:D *455:66 0
8 *52:8 *760:B 0
9 *52:8 *203:207 0
10 *52:12 *761:A 0
11 *52:12 *973:A 0
12 *52:12 *974:A 0
13 *52:12 *976:A1 0
14 *52:12 *976:A2 0
15 *52:12 *1146:D 0
16 *52:12 *455:48 0
17 *52:12 *455:50 0
18 *52:12 *531:41 0
19 *52:12 *610:9 0
*RES
1 *907:Y *52:8 19.6393 
2 *52:8 *52:12 48.3036 
3 *52:12 *1128:D 17.7643 
*END

*D_NET *53 0.00232987
*CONN
*I *1129:D I *D sky130_fd_sc_hd__dfrtp_1
*I *910:Y O *D sky130_fd_sc_hd__o21ai_0
*CAP
1 *1129:D 0.00116493
2 *910:Y 0.00116493
3 *1129:D *909:A 0
4 *1129:D *989:A 0
5 *1129:D *1149:D 0
6 *1129:D *1155:D 0
7 *1129:D *456:16 0
8 *1129:D *505:9 0
*RES
1 *910:Y *1129:D 39.3599 
*END

*D_NET *54 0.00550776
*CONN
*I *1130:D I *D sky130_fd_sc_hd__dfrtp_1
*I *913:Y O *D sky130_fd_sc_hd__o21ai_0
*CAP
1 *1130:D 0
2 *913:Y 0.00275388
3 *54:24 0.00275388
4 *54:24 *704:C1 0
5 *54:24 *913:B1 0
6 *54:24 *1130:CLK 0
7 *54:24 *226:24 0
8 *54:24 *456:16 0
9 *54:24 *463:21 0
10 *54:24 *515:8 0
*RES
1 *913:Y *54:24 41.3257 
2 *54:24 *1130:D 9.3 
*END

*D_NET *55 0.00357593
*CONN
*I *1131:D I *D sky130_fd_sc_hd__dfrtp_1
*I *916:Y O *D sky130_fd_sc_hd__nand2_1
*CAP
1 *1131:D 0
2 *916:Y 0.00178796
3 *55:20 0.00178796
4 *55:20 *685:A1 0
5 *55:20 *704:B2 0
6 *55:20 *748:A 0
7 *55:20 *748:D 0
8 *55:20 *759:A 0
9 *55:20 *916:A 0
10 *55:20 *919:A 0
11 *55:20 *226:24 0
12 *55:20 *456:16 0
13 *55:20 *464:14 0
14 *55:20 *464:25 0
15 *55:20 *530:44 0
16 *55:20 *607:12 0
*RES
1 *916:Y *55:20 43.8634 
2 *55:20 *1131:D 9.3 
*END

*D_NET *56 0.00127117
*CONN
*I *1132:D I *D sky130_fd_sc_hd__dfrtp_1
*I *919:Y O *D sky130_fd_sc_hd__nand2_1
*CAP
1 *1132:D 0.000635583
2 *919:Y 0.000635583
3 *1132:D *608:97 0
*RES
1 *919:Y *1132:D 40.975 
*END

*D_NET *57 0.00160109
*CONN
*I *1133:D I *D sky130_fd_sc_hd__dfrtp_1
*I *922:Y O *D sky130_fd_sc_hd__nand2_1
*CAP
1 *1133:D 0.000800545
2 *922:Y 0.000800545
3 *1133:D *921:A 0
4 *1133:D *1142:D 0
5 *1133:D *1143:D 0
6 *1133:D *460:12 0
*RES
1 *922:Y *1133:D 39.0608 
*END

*D_NET *58 0.00214373
*CONN
*I *1134:D I *D sky130_fd_sc_hd__dfrtp_1
*I *925:Y O *D sky130_fd_sc_hd__o21ai_0
*CAP
1 *1134:D 0
2 *925:Y 0.00107186
3 *58:11 0.00107186
4 *58:11 *923:A 0
5 *58:11 *924:A 0
6 *58:11 *925:B1 0
7 *58:11 *1134:CLK 0
*RES
1 *925:Y *58:11 41.175 
2 *58:11 *1134:D 9.3 
*END

*D_NET *59 0.00150761
*CONN
*I *1135:D I *D sky130_fd_sc_hd__dfrtp_1
*I *928:Y O *D sky130_fd_sc_hd__nand2_1
*CAP
1 *1135:D 0.000753807
2 *928:Y 0.000753807
3 *1135:D *927:A 0
*RES
1 *928:Y *1135:D 34.3321 
*END

*D_NET *60 0.00142317
*CONN
*I *1136:D I *D sky130_fd_sc_hd__dfrtp_1
*I *931:Y O *D sky130_fd_sc_hd__nand2_1
*CAP
1 *1136:D 0.000711587
2 *931:Y 0.000711587
3 *1136:D *931:A 0
4 *1136:D *1033:A 0
5 *1136:D *1033:B 0
6 *1136:D *1138:D 0
7 *1136:D *1139:D 0
8 *1136:D *1170:CLK 0
9 *1136:D *1170:D 0
10 *1136:D *246:177 0
11 *1136:D *609:25 0
*RES
1 *931:Y *1136:D 43.2607 
*END

*D_NET *61 0.00183355
*CONN
*I *1137:D I *D sky130_fd_sc_hd__dfrtp_1
*I *934:Y O *D sky130_fd_sc_hd__o21ai_0
*CAP
1 *1137:D 0.000916774
2 *934:Y 0.000916774
3 *1137:D *931:B 0
4 *1137:D *1137:CLK 0
5 *1137:D *81:8 0
6 *1137:D *459:10 0
7 *1137:D *609:31 0
8 *1137:D *609:40 0
9 *1137:D *609:49 0
*RES
1 *934:Y *1137:D 48.0464 
*END

*D_NET *62 0.000944558
*CONN
*I *1138:D I *D sky130_fd_sc_hd__dfrtp_1
*I *937:Y O *D sky130_fd_sc_hd__o21ai_0
*CAP
1 *1138:D 0.000472279
2 *937:Y 0.000472279
3 *1138:D *935:B 0
4 *1138:D *1139:D 0
5 *1138:D *1170:CLK 0
6 *1138:D *64:17 0
7 *1138:D *246:177 0
8 *1136:D *1138:D 0
*RES
1 *937:Y *1138:D 38.2786 
*END

*D_NET *63 0.00162754
*CONN
*I *1139:D I *D sky130_fd_sc_hd__dfrtp_1
*I *940:Y O *D sky130_fd_sc_hd__o21ai_0
*CAP
1 *1139:D 0.000813768
2 *940:Y 0.000813768
3 *1139:D *931:B 0
4 *1139:D *941:A 0
5 *1139:D *993:B 0
6 *1139:D *1032:B 0
7 *1139:D *1136:RESET_B 0
8 *1139:D *246:177 0
9 *1139:D *246:181 0
10 *1139:D *459:10 0
11 *1136:D *1139:D 0
12 *1138:D *1139:D 0
*RES
1 *940:Y *1139:D 45.8143 
*END

*D_NET *64 0.0027788
*CONN
*I *1140:D I *D sky130_fd_sc_hd__dfrtp_1
*I *943:Y O *D sky130_fd_sc_hd__nand2_1
*CAP
1 *1140:D 0
2 *943:Y 0.0013894
3 *64:17 0.0013894
4 *64:17 *745:C 0
5 *64:17 *933:A 0
6 *64:17 *935:B 0
7 *64:17 *936:B 0
8 *64:17 *940:A2 0
9 *64:17 *941:A 0
10 *64:17 *941:B 0
11 *64:17 *943:A 0
12 *64:17 *1136:RESET_B 0
13 *64:17 *1140:RESET_B 0
14 *64:17 *1170:CLK 0
15 *64:17 *1170:D 0
16 *64:17 *1170:RESET_B 0
17 *64:17 *204:267 0
18 *64:17 *246:186 0
19 *64:17 *455:771 0
20 *64:17 *455:800 0
21 *64:17 *457:8 0
22 *64:17 *457:13 0
23 *64:17 *458:8 0
24 *64:17 *460:33 0
25 *64:17 *609:25 0
26 *1138:D *64:17 0
*RES
1 *943:Y *64:17 49.0321 
2 *64:17 *1140:D 9.3 
*END

*D_NET *65 0.00284392
*CONN
*I *1141:D I *D sky130_fd_sc_hd__dfrtp_1
*I *946:Y O *D sky130_fd_sc_hd__nand2_1
*CAP
1 *1141:D 0
2 *946:Y 0.00142196
3 *65:14 0.00142196
4 *65:14 *930:B 0
5 *65:14 *931:B 0
6 *65:14 *934:A2 0
7 *65:14 *944:A 0
8 *65:14 *992:A 0
9 *65:14 *1025:B 0
10 *65:14 *1506:A 0
11 *65:14 *81:8 0
12 *65:14 *203:307 0
13 *65:14 *203:332 0
14 *65:14 *204:325 0
15 *65:14 *458:13 0
16 *65:14 *468:41 0
17 *65:14 *469:40 0
18 *65:14 *519:8 0
*RES
1 *946:Y *65:14 43.4935 
2 *65:14 *1141:D 9.3 
*END

*D_NET *66 0.00245292
*CONN
*I *1142:D I *D sky130_fd_sc_hd__dfrtp_1
*I *949:Y O *D sky130_fd_sc_hd__o21ai_0
*CAP
1 *1142:D 0.00122646
2 *949:Y 0.00122646
3 *1142:D *759:C 0
4 *1142:D *947:A 0
5 *1142:D *1143:D 0
6 *1142:D *203:271 0
7 *1142:D *246:231 0
8 *1142:D *460:12 0
9 *1133:D *1142:D 0
*RES
1 *949:Y *1142:D 44.1756 
*END

*D_NET *67 0.00280363
*CONN
*I *1143:D I *D sky130_fd_sc_hd__dfrtp_1
*I *952:Y O *D sky130_fd_sc_hd__nand2_1
*CAP
1 *1143:D 0.00140182
2 *952:Y 0.00140182
3 *1143:D *759:C 0
4 *1143:D *951:B 0
5 *1143:D *952:B 0
6 *1143:D *955:B1 0
7 *1143:D *246:231 0
8 *1143:D *461:9 0
9 *1143:D *461:14 0
10 *1143:D *608:29 0
11 *1143:D *608:31 0
12 *1133:D *1143:D 0
13 *1142:D *1143:D 0
*RES
1 *952:Y *1143:D 45.0557 
*END

*D_NET *68 0.00255021
*CONN
*I *1144:D I *D sky130_fd_sc_hd__dfrtp_1
*I *955:Y O *D sky130_fd_sc_hd__o21ai_0
*CAP
1 *1144:D 0
2 *955:Y 0.0012751
3 *68:16 0.0012751
4 *68:16 *953:A 0
5 *68:16 *953:B 0
6 *68:16 *954:A 0
7 *68:16 *955:A2 0
8 *68:16 *955:B1 0
9 *68:16 *958:A2 0
10 *68:16 *1143:CLK 0
11 *68:16 *1143:RESET_B 0
12 *68:16 *1145:D 0
13 *68:16 *203:244 0
14 *68:16 *455:132 0
15 *68:16 *465:25 0
16 *68:16 *608:27 0
17 *68:16 *608:81 0
*RES
1 *955:Y *68:16 45.2464 
2 *68:16 *1144:D 9.3 
*END

*D_NET *69 0.00207794
*CONN
*I *1145:D I *D sky130_fd_sc_hd__dfrtp_1
*I *958:Y O *D sky130_fd_sc_hd__o21ai_0
*CAP
1 *1145:D 0.00103897
2 *958:Y 0.00103897
3 *1145:D *759:C 0
4 *1145:D *918:B 0
5 *1145:D *955:B1 0
6 *1145:D *204:402 0
7 *1145:D *461:9 0
8 *1145:D *461:14 0
9 *1145:D *462:12 0
10 *1145:D *608:27 0
11 *68:16 *1145:D 0
*RES
1 *958:Y *1145:D 39.3905 
*END

*D_NET *70 0.00346384
*CONN
*I *1146:D I *D sky130_fd_sc_hd__dfrtp_1
*I *961:Y O *D sky130_fd_sc_hd__nand2_1
*CAP
1 *1146:D 0.00173192
2 *961:Y 0.00173192
3 *1146:D *663:C1 0
4 *1146:D *696:C2 0
5 *1146:D *204:545 0
6 *1146:D *239:22 0
7 *1146:D *529:12 0
8 *1146:D *607:11 0
9 *1146:D *610:9 0
10 *1146:D *610:125 0
11 *52:12 *1146:D 0
*RES
1 *961:Y *1146:D 42.6794 
*END

*D_NET *71 0.00359099
*CONN
*I *1147:D I *D sky130_fd_sc_hd__dfrtp_1
*I *964:Y O *D sky130_fd_sc_hd__o21ai_0
*CAP
1 *1147:D 0.0017955
2 *964:Y 0.0017955
3 *1147:D *908:A 0
4 *1147:D *963:A 0
5 *1147:D *989:A 0
6 *1147:D *1019:A 0
7 *1147:D *239:22 0
8 *1147:D *463:21 0
9 *1147:D *505:9 0
*RES
1 *964:Y *1147:D 42.8956 
*END

*D_NET *72 0.00178911
*CONN
*I *1148:D I *D sky130_fd_sc_hd__dfrtp_1
*I *967:Y O *D sky130_fd_sc_hd__nand2_1
*CAP
1 *1148:D 0.000894557
2 *967:Y 0.000894557
3 *1148:D *971:A 0
4 *1148:D *974:A 0
5 *1148:D *976:B1 0
6 *1148:D *1019:B 0
7 *1148:D *203:98 0
8 *1148:D *203:102 0
9 *1148:D *610:20 0
*RES
1 *967:Y *1148:D 37.2071 
*END

*D_NET *73 0.00227723
*CONN
*I *1149:D I *D sky130_fd_sc_hd__dfrtp_1
*I *970:Y O *D sky130_fd_sc_hd__o21ai_0
*CAP
1 *1149:D 0.00113862
2 *970:Y 0.00113862
3 *1149:D *704:B2 0
4 *1149:D *1155:D 0
5 *1149:D *505:9 0
6 *1149:D *607:12 0
7 *1129:D *1149:D 0
*RES
1 *970:Y *1149:D 39.5193 
*END

*D_NET *74 0.000995934
*CONN
*I *1150:D I *D sky130_fd_sc_hd__dfrtp_1
*I *973:Y O *D sky130_fd_sc_hd__nand2_1
*CAP
1 *1150:D 0.000497967
2 *973:Y 0.000497967
3 *1150:D *1151:RESET_B 0
4 *1150:D *455:208 0
5 *1150:D *531:41 0
6 *1150:D *610:9 0
7 *1150:D *610:16 0
*RES
1 *973:Y *1150:D 38.2116 
*END

*D_NET *75 0.00115555
*CONN
*I *1151:D I *D sky130_fd_sc_hd__dfrtp_1
*I *976:Y O *D sky130_fd_sc_hd__o21ai_0
*CAP
1 *1151:D 0.000577774
2 *976:Y 0.000577774
3 *1151:D *975:A 0
4 *1151:D *976:B1 0
5 *1151:D *203:98 0
6 *1151:D *546:26 0
*RES
1 *976:Y *1151:D 39.9393 
*END

*D_NET *76 0.00051089
*CONN
*I *1152:D I *D sky130_fd_sc_hd__dfrtp_1
*I *979:Y O *D sky130_fd_sc_hd__nand2_1
*CAP
1 *1152:D 0.000255445
2 *979:Y 0.000255445
3 *1152:D *626:B 0
*RES
1 *979:Y *1152:D 33.0643 
*END

*D_NET *77 0.000208773
*CONN
*I *1153:D I *D sky130_fd_sc_hd__dfrtp_1
*I *982:Y O *D sky130_fd_sc_hd__o21ai_0
*CAP
1 *1153:D 0.000104386
2 *982:Y 0.000104386
3 *1153:D *534:8 0
*RES
1 *982:Y *1153:D 20.7786 
*END

*D_NET *78 0.0022965
*CONN
*I *1154:D I *D sky130_fd_sc_hd__dfrtp_1
*I *985:Y O *D sky130_fd_sc_hd__nand2_1
*CAP
1 *1154:D 0.00114825
2 *985:Y 0.00114825
3 *1154:D *688:C1 0
4 *1154:D *719:B 0
5 *1154:D *723:A1 0
6 *1154:D *984:B 0
7 *1154:D *985:B 0
8 *1154:D *1154:CLK 0
*RES
1 *985:Y *1154:D 42.5643 
*END

*D_NET *79 0.00270173
*CONN
*I *1155:D I *D sky130_fd_sc_hd__dfrtp_1
*I *988:Y O *D sky130_fd_sc_hd__o21ai_0
*CAP
1 *1155:D 0.00135087
2 *988:Y 0.00135087
3 *1155:D *704:B2 0
4 *1155:D *748:A 0
5 *1155:D *1149:CLK 0
6 *1155:D *455:120 0
7 *1155:D *456:16 0
8 *1129:D *1155:D 0
9 *1149:D *1155:D 0
*RES
1 *988:Y *1155:D 43.8771 
*END

*D_NET *80 0.00209971
*CONN
*I *1156:D I *D sky130_fd_sc_hd__dfrtp_1
*I *991:Y O *D sky130_fd_sc_hd__nand2_1
*CAP
1 *1156:D 0.00104985
2 *991:Y 0.00104985
3 *1156:D *990:A 0
4 *1156:D *506:5 0
5 *1156:D *608:106 0
*RES
1 *991:Y *1156:D 40.5107 
*END

*D_NET *81 0.00336584
*CONN
*I *1157:D I *D sky130_fd_sc_hd__dfrtp_1
*I *994:Y O *D sky130_fd_sc_hd__o21ai_0
*CAP
1 *1157:D 0.000242142
2 *994:Y 0.00144078
3 *81:8 0.00168292
4 *1157:D *1154:CLK 0
5 *1157:D *1157:RESET_B 0
6 *81:8 *693:A1 0
7 *81:8 *930:B 0
8 *81:8 *934:A1 0
9 *81:8 *943:B 0
10 *81:8 *1131:RESET_B 0
11 *81:8 *246:186 0
12 *81:8 *455:725 0
13 *81:8 *455:745 0
14 *81:8 *464:8 0
15 *81:8 *469:40 0
16 *81:8 *519:8 0
17 *81:8 *530:6 0
18 *81:8 *607:12 0
19 *1137:D *81:8 0
20 *65:14 *81:8 0
*RES
1 *994:Y *81:8 46.0857 
2 *81:8 *1157:D 18.8536 
*END

*D_NET *82 0.00127116
*CONN
*I *1158:D I *D sky130_fd_sc_hd__dfrtp_1
*I *997:Y O *D sky130_fd_sc_hd__nand2_1
*CAP
1 *1158:D 0.000635582
2 *997:Y 0.000635582
3 *1158:D *995:B 0
4 *1158:D *996:B 0
5 *1158:D *997:B 0
6 *1158:D *1002:A 0
7 *1158:D *1002:B 0
8 *1158:D *1006:A1 0
9 *1158:D *203:582 0
10 *1158:D *246:148 0
11 *1158:D *484:26 0
12 *1158:D *508:11 0
13 *1158:D *524:10 0
*RES
1 *997:Y *1158:D 41.9214 
*END

*D_NET *83 0.00131104
*CONN
*I *1159:D I *D sky130_fd_sc_hd__dfrtp_1
*I *1000:Y O *D sky130_fd_sc_hd__o21ai_0
*CAP
1 *1159:D 0.000655521
2 *1000:Y 0.000655521
3 *1159:D *1000:A2 0
4 *1159:D *1036:A1 0
5 *1159:D *1159:RESET_B 0
6 *1159:D *1171:CLK 0
7 *1159:D *1172:D 0
8 *1159:D *158:20 0
9 *1159:D *246:155 0
10 *1159:D *523:11 0
11 *1159:D *609:121 0
*RES
1 *1000:Y *1159:D 42.1 
*END

*D_NET *84 0.00119391
*CONN
*I *1160:D I *D sky130_fd_sc_hd__dfrtp_1
*I *1003:Y O *D sky130_fd_sc_hd__nand2_1
*CAP
1 *1160:D 0.000596955
2 *1003:Y 0.000596955
3 *1160:D *672:A2 0
4 *1160:D *705:A1 0
5 *1160:D *706:B2 0
6 *1160:D *740:A 0
7 *1160:D *1003:A 0
8 *1160:D *1003:B 0
9 *1160:D *1173:RESET_B 0
10 *1160:D *97:10 0
11 *1160:D *134:101 0
12 *1160:D *203:578 0
13 *1160:D *218:10 0
14 *1160:D *468:55 0
15 *1160:D *508:16 0
16 *1160:D *509:19 0
17 *1160:D *522:8 0
*RES
1 *1003:Y *1160:D 40.8321 
*END

*D_NET *85 0.00285312
*CONN
*I *1161:D I *D sky130_fd_sc_hd__dfrtp_1
*I *1006:Y O *D sky130_fd_sc_hd__o21ai_0
*CAP
1 *1161:D 0
2 *1006:Y 0.00142656
3 *85:16 0.00142656
4 *85:16 *673:C1 0
5 *85:16 *681:C2 0
6 *85:16 *712:C1 0
7 *85:16 *717:B2 0
8 *85:16 *1006:B1 0
9 *85:16 *1174:D 0
10 *85:16 *475:8 0
11 *85:16 *495:11 0
12 *85:16 *510:8 0
13 *85:16 *607:63 0
14 *85:16 *612:36 0
15 *85:16 *612:54 0
16 *85:16 *612:56 0
17 *85:16 *612:58 0
18 *30:11 *85:16 0
*RES
1 *1006:Y *85:16 44.7588 
2 *85:16 *1161:D 9.3 
*END

*D_NET *86 0.000208773
*CONN
*I *1162:D I *D sky130_fd_sc_hd__dfrtp_1
*I *1009:Y O *D sky130_fd_sc_hd__nand2_1
*CAP
1 *1162:D 0.000104386
2 *1009:Y 0.000104386
3 *1162:D *1162:CLK 0
*RES
1 *1009:Y *1162:D 20.7786 
*END

*D_NET *87 0.00196206
*CONN
*I *1163:D I *D sky130_fd_sc_hd__dfrtp_1
*I *1012:Y O *D sky130_fd_sc_hd__o21ai_0
*CAP
1 *1163:D 0.000981031
2 *1012:Y 0.000981031
3 *1163:D uo_out[6] 0
4 *1163:D *686:A1 0
5 *1163:D *686:A2 0
6 *1163:D *687:B2 0
7 *1163:D *1011:A 0
8 *1163:D *1013:A 0
9 *1163:D *1163:CLK 0
10 *1163:D *469:14 0
11 *1163:D *513:30 0
12 *1163:D *567:71 0
*RES
1 *1012:Y *1163:D 49.2429 
*END

*D_NET *88 0.000815525
*CONN
*I *1164:D I *D sky130_fd_sc_hd__dfrtp_1
*I *1015:Y O *D sky130_fd_sc_hd__nand2_1
*CAP
1 *1164:D 0.000407762
2 *1015:Y 0.000407762
3 *1164:D *1164:CLK 0
4 *1164:D *610:36 0
5 *51:17 *1164:D 0
*RES
1 *1015:Y *1164:D 36.1937 
*END

*D_NET *89 0.000366208
*CONN
*I *1165:D I *D sky130_fd_sc_hd__dfrtp_1
*I *1018:Y O *D sky130_fd_sc_hd__o21ai_0
*CAP
1 *1165:D 0.000183104
2 *1018:Y 0.000183104
3 *1165:D *1017:A 0
4 *1165:D *1018:B1 0
5 *1165:D *1165:CLK 0
6 *1165:D *204:529 0
*RES
1 *1018:Y *1165:D 22.4214 
*END

*D_NET *90 0.00103531
*CONN
*I *1166:D I *D sky130_fd_sc_hd__dfrtp_1
*I *1021:Y O *D sky130_fd_sc_hd__nand2_1
*CAP
1 *1166:D 0.000517654
2 *1021:Y 0.000517654
3 *1166:D *1021:A 0
4 *1166:D *526:13 0
*RES
1 *1021:Y *1166:D 29.4036 
*END

*D_NET *91 0.000444828
*CONN
*I *1167:D I *D sky130_fd_sc_hd__dfrtp_1
*I *1024:Y O *D sky130_fd_sc_hd__o21ai_0
*CAP
1 *1167:D 0.000222414
2 *1024:Y 0.000222414
3 *1167:D *945:A 0
4 *1167:D *518:8 0
*RES
1 *1024:Y *1167:D 32.35 
*END

*D_NET *92 0.00216971
*CONN
*I *1168:D I *D sky130_fd_sc_hd__dfrtp_1
*I *1027:Y O *D sky130_fd_sc_hd__nand2_1
*CAP
1 *1168:D 0
2 *1027:Y 0.00108486
3 *92:10 0.00108486
4 *92:10 *704:B2 0
5 *92:10 *929:A 0
6 *92:10 *931:A 0
7 *92:10 *1029:B 0
8 *92:10 *1141:CLK 0
9 *92:10 *1506:A 0
10 *92:10 *93:13 0
11 *92:10 *203:368 0
12 *92:10 *204:314 0
13 *92:10 *204:320 0
14 *92:10 *246:189 0
15 *92:10 *246:211 0
16 *92:10 *467:9 0
17 *92:10 *468:41 0
18 *92:10 *518:28 0
19 *92:10 *607:12 0
*RES
1 *1027:Y *92:10 42.3179 
2 *92:10 *1168:D 9.3 
*END

*D_NET *93 0.00251503
*CONN
*I *1169:D I *D sky130_fd_sc_hd__dfrtp_1
*I *1030:Y O *D sky130_fd_sc_hd__o21ai_0
*CAP
1 *1169:D 0
2 *1030:Y 0.00125752
3 *93:13 0.00125752
4 *93:13 *704:B2 0
5 *93:13 *929:A 0
6 *93:13 *1026:A 0
7 *93:13 *1028:B 0
8 *93:13 *1167:RESET_B 0
9 *93:13 *1169:CLK 0
10 *93:13 *246:211 0
11 *93:13 *455:130 0
12 *93:13 *455:132 0
13 *93:13 *455:144 0
14 *93:13 *455:154 0
15 *93:13 *455:156 0
16 *93:13 *455:164 0
17 *93:13 *460:8 0
18 *93:13 *461:8 0
19 *93:13 *462:12 0
20 *93:13 *465:11 0
21 *93:13 *467:9 0
22 *93:13 *519:14 0
23 *93:13 *608:22 0
24 *92:10 *93:13 0
*RES
1 *1030:Y *93:13 46.0143 
2 *93:13 *1169:D 9.3 
*END

*D_NET *94 0.00096086
*CONN
*I *1170:D I *D sky130_fd_sc_hd__dfrtp_1
*I *1033:Y O *D sky130_fd_sc_hd__nand2_1
*CAP
1 *1170:D 0.00048043
2 *1033:Y 0.00048043
3 *1170:D *745:C 0
4 *1170:D *246:177 0
5 *1170:D *460:33 0
6 *1136:D *1170:D 0
7 *64:17 *1170:D 0
*RES
1 *1033:Y *1170:D 37.9571 
*END

*D_NET *95 0.000715028
*CONN
*I *1171:D I *D sky130_fd_sc_hd__dfrtp_1
*I *1036:Y O *D sky130_fd_sc_hd__o21ai_0
*CAP
1 *1171:D 0.000357514
2 *1036:Y 0.000357514
3 *1171:D *705:B2 0
4 *1171:D *1000:B1 0
5 *1171:D *1036:A1 0
6 *1171:D *509:11 0
7 *1171:D *523:11 0
*RES
1 *1036:Y *1171:D 35.5643 
*END

*D_NET *96 0.00159297
*CONN
*I *1172:D I *D sky130_fd_sc_hd__dfrtp_1
*I *1039:Y O *D sky130_fd_sc_hd__nand2_1
*CAP
1 *1172:D 0.000796485
2 *1039:Y 0.000796485
3 *1172:D *672:A1 0
4 *1172:D *1042:A1 0
5 *1172:D *1171:CLK 0
6 *1172:D *1171:RESET_B 0
7 *1172:D *1173:CLK 0
8 *1172:D *246:167 0
9 *1172:D *455:680 0
10 *1172:D *455:682 0
11 *1172:D *455:711 0
12 *1172:D *521:22 0
13 *1159:D *1172:D 0
*RES
1 *1039:Y *1172:D 45.2964 
*END

*D_NET *97 0.00269499
*CONN
*I *1173:D I *D sky130_fd_sc_hd__dfrtp_1
*I *1042:Y O *D sky130_fd_sc_hd__o21ai_0
*CAP
1 *1173:D 0
2 *1042:Y 0.0013475
3 *97:10 0.0013475
4 *97:10 *672:B1 0
5 *97:10 *730:A 0
6 *97:10 *734:A 0
7 *97:10 *734:B 0
8 *97:10 *768:A 0
9 *97:10 *995:B 0
10 *97:10 *1041:A 0
11 *97:10 *1042:B1 0
12 *97:10 *149:70 0
13 *97:10 *203:578 0
14 *97:10 *203:580 0
15 *97:10 *203:582 0
16 *97:10 *468:55 0
17 *1160:D *97:10 0
*RES
1 *1042:Y *97:10 48.4607 
2 *97:10 *1173:D 9.3 
*END

*D_NET *98 0.00152001
*CONN
*I *1174:D I *D sky130_fd_sc_hd__dfrtp_1
*I *1045:Y O *D sky130_fd_sc_hd__nand2_1
*CAP
1 *1174:D 0.000760006
2 *1045:Y 0.000760006
3 *1174:D *1005:B 0
4 *1174:D *1158:CLK 0
5 *1174:D *99:14 0
6 *1174:D *203:630 0
7 *1174:D *204:224 0
8 *30:11 *1174:D 0
9 *85:16 *1174:D 0
*RES
1 *1045:Y *1174:D 44.4929 
*END

*D_NET *99 0.00279868
*CONN
*I *1175:D I *D sky130_fd_sc_hd__dfrtp_1
*I *1048:Y O *D sky130_fd_sc_hd__o21ai_0
*CAP
1 *1175:D 0
2 *1048:Y 0.00139934
3 *99:14 0.00139934
4 *99:14 *713:C1 0
5 *99:14 *717:B2 0
6 *99:14 *734:A 0
7 *99:14 *1006:A2 0
8 *99:14 *1043:A 0
9 *99:14 *1047:B 0
10 *99:14 *1048:A2 0
11 *99:14 *1158:CLK 0
12 *99:14 *1175:CLK 0
13 *99:14 *203:602 0
14 *99:14 *204:224 0
15 *99:14 *246:435 0
16 *99:14 *484:26 0
17 *99:14 *612:54 0
18 *99:14 *612:56 0
19 *99:14 *612:58 0
20 *1101:D *99:14 0
21 *1174:D *99:14 0
*RES
1 *1048:Y *99:14 49.9071 
2 *99:14 *1175:D 9.3 
*END

*D_NET *100 0.00192607
*CONN
*I *1176:D I *D sky130_fd_sc_hd__dfrtp_1
*I *1051:Y O *D sky130_fd_sc_hd__nand2_1
*CAP
1 *1176:D 0.000963033
2 *1051:Y 0.000963033
3 *1176:D *818:A 0
4 *1176:D *835:B1 0
5 *1176:D *848:B 0
6 *1176:D *850:A1 0
7 *1176:D *1050:A 0
8 *1176:D *1051:A 0
9 *1176:D *1051:B 0
10 *1176:D *1176:CLK 0
11 *1176:D *204:156 0
12 *1176:D *204:875 0
13 *1176:D *482:12 0
14 *1176:D *487:10 0
15 *1176:D *487:15 0
*RES
1 *1051:Y *1176:D 49.0821 
*END

*D_NET *101 0.00288089
*CONN
*I *1177:D I *D sky130_fd_sc_hd__dfrtp_1
*I *1054:Y O *D sky130_fd_sc_hd__o21ai_0
*CAP
1 *1177:D 0.00144044
2 *1054:Y 0.00144044
3 *1177:D *769:B2 0
4 *1177:D *1055:A2 0
5 *1177:D *203:16 0
6 *1177:D *203:955 0
7 *1177:D *204:1056 0
8 *1177:D *204:1066 0
9 *1177:D *246:608 0
10 *1177:D *572:11 0
*RES
1 *1054:Y *1177:D 42.1335 
*END

*D_NET *102 0.000392853
*CONN
*I *1178:D I *D sky130_fd_sc_hd__dfrtp_1
*I *1055:X O *D sky130_fd_sc_hd__a21o_1
*CAP
1 *1178:D 0.000196426
2 *1055:X 0.000196426
3 *1178:D *1055:A1 0
4 *1178:D *1184:CLK 0
5 *1178:D *204:11 0
*RES
1 *1055:X *1178:D 31.8321 
*END

*D_NET *103 0.000737888
*CONN
*I *1183:D I *D sky130_fd_sc_hd__dfxtp_1
*I *1058:Y O *D sky130_fd_sc_hd__o41ai_1
*CAP
1 *1183:D 0.000368944
2 *1058:Y 0.000368944
3 *1183:D *626:A 0
4 *1183:D *640:A 0
5 *1183:D *1058:A1 0
6 *1183:D *1058:A2 0
7 *1183:D *1058:A4 0
8 *1183:D *1183:CLK 0
9 *1183:D *1504:A 0
10 *1183:D *124:15 0
11 *1183:D *125:6 0
12 *1183:D *590:7 0
*RES
1 *1058:Y *1183:D 35.4571 
*END

*D_NET *104 0.000518082
*CONN
*I *1184:D I *D sky130_fd_sc_hd__dfxtp_1
*I *1063:Y O *D sky130_fd_sc_hd__nor2_1
*CAP
1 *1184:D 0.000259041
2 *1063:Y 0.000259041
3 *1184:D *617:A 0
4 *1184:D *1063:A 0
5 *1184:D *1184:CLK 0
*RES
1 *1063:Y *1184:D 24.0688 
*END

*D_NET *105 0.00230515
*CONN
*I *1185:D I *D sky130_fd_sc_hd__dfxtp_1
*I *1067:X O *D sky130_fd_sc_hd__mux2_1
*CAP
1 *1185:D 7.91454e-06
2 *1067:X 0.00114466
3 *105:12 0.00115258
4 *1185:D *1187:D 0
5 *105:12 *1074:A2 0
6 *105:12 *1074:B1 0
7 *105:12 *1077:A4 0
*RES
1 *1067:X *105:12 47.3 
2 *105:12 *1185:D 13.9652 
*END

*D_NET *106 0.00215678
*CONN
*I *1186:D I *D sky130_fd_sc_hd__dfxtp_1
*I *1072:Y O *D sky130_fd_sc_hd__o21ai_0
*CAP
1 *1186:D 0.00107839
2 *1072:Y 0.00107839
3 *1186:D *635:A 0
4 *1186:D *108:11 0
5 *1186:D *113:35 0
6 *1186:D *126:8 0
7 *1186:D *127:32 0
8 *1186:D *562:9 0
9 *1186:D *562:14 0
10 *1186:D *610:87 0
11 *1186:D *610:96 0
*RES
1 *1072:Y *1186:D 43.7106 
*END

*D_NET *107 0.00237179
*CONN
*I *1187:D I *D sky130_fd_sc_hd__dfxtp_1
*I *1074:X O *D sky130_fd_sc_hd__a22o_1
*CAP
1 *1187:D 0.0011859
2 *1074:X 0.0011859
3 *1187:D *632:A2 0
4 *1187:D *632:A3 0
5 *1187:D *635:A 0
6 *1187:D *1074:A1 0
7 *1187:D *1074:B1 0
8 *1187:D *1185:CLK 0
9 *1187:D *1187:CLK 0
10 *1187:D *123:7 0
11 *1187:D *561:17 0
12 *1185:D *1187:D 0
*RES
1 *1074:X *1187:D 43.6 
*END

*D_NET *108 0.0022994
*CONN
*I *1188:D I *D sky130_fd_sc_hd__dfxtp_1
*I *1077:Y O *D sky130_fd_sc_hd__o41ai_1
*CAP
1 *1188:D 0
2 *1077:Y 0.0011497
3 *108:11 0.0011497
4 *108:11 *638:A2 0
5 *108:11 *1077:A1 0
6 *108:11 *1077:B1 0
7 *108:11 *1188:CLK 0
8 *108:11 *113:24 0
9 *108:11 *116:22 0
10 *108:11 *126:11 0
11 *108:11 *564:5 0
12 *1186:D *108:11 0
*RES
1 *1077:Y *108:11 42.6973 
2 *108:11 *1188:D 9.3 
*END

*D_NET *109 0.000253446
*CONN
*I *1189:D I *D sky130_fd_sc_hd__dfxtp_1
*I *1079:X O *D sky130_fd_sc_hd__a22o_1
*CAP
1 *1189:D 0.000126723
2 *1079:X 0.000126723
3 *1189:D *1078:B 0
4 *1189:D *127:20 0
5 *1189:D *556:45 0
6 *1189:D *592:8 0
*RES
1 *1079:X *1189:D 30.4036 
*END

*D_NET *110 0.00135028
*CONN
*I *1190:D I *D sky130_fd_sc_hd__dfxtp_1
*I *1080:X O *D sky130_fd_sc_hd__and2_0
*CAP
1 *1190:D 0.000675142
2 *1080:X 0.000675142
3 *1190:D *1184:CLK 0
4 *1190:D *204:11 0
5 *1190:D *555:9 0
6 *1190:D *571:11 0
7 *1190:D *591:9 0
8 *1190:D *614:43 0
9 *1081:D *1190:D 0
*RES
1 *1080:X *1190:D 42.2652 
*END

*D_NET *111 0.00106999
*CONN
*I *724:B I *D sky130_fd_sc_hd__and2_0
*I *619:A I *D sky130_fd_sc_hd__clkinv_1
*I *725:B I *D sky130_fd_sc_hd__nand2_1
*I *618:Y O *D sky130_fd_sc_hd__nand2_1
*CAP
1 *724:B 0
2 *619:A 0.000104386
3 *725:B 0.000112395
4 *618:Y 4.53482e-05
5 *111:20 0.00037725
6 *111:5 0.000430607
7 *619:A *724:A 0
8 *619:A *203:5 0
9 *725:B *726:A 0
10 *725:B *1055:A1 0
11 *725:B *203:16 0
12 *111:5 *728:A 0
13 *111:20 *618:A 0
14 *111:20 *728:A 0
15 *111:20 *203:16 0
*RES
1 *618:Y *111:5 10.2464 
2 *111:5 *725:B 20.8536 
3 *111:5 *111:20 14.9643 
4 *111:20 *619:A 11.4786 
5 *111:20 *724:B 9.3 
*END

*D_NET *112 0.000290913
*CONN
*I *630:A1 I *D sky130_fd_sc_hd__o21ai_0
*I *620:Y O *D sky130_fd_sc_hd__nand2_1
*CAP
1 *630:A1 0.000145456
2 *620:Y 0.000145456
3 *630:A1 *630:A2 0
4 *630:A1 *630:B1 0
5 *630:A1 *637:A1 0
*RES
1 *620:Y *630:A1 21.7607 
*END

*D_NET *113 0.0055261
*CONN
*I *1065:A1 I *D sky130_fd_sc_hd__a21boi_0
*I *1077:A1 I *D sky130_fd_sc_hd__o41ai_1
*I *625:B I *D sky130_fd_sc_hd__nor3_1
*I *622:B I *D sky130_fd_sc_hd__nor2_1
*I *621:Y O *D sky130_fd_sc_hd__nor2_1
*CAP
1 *1065:A1 0
2 *1077:A1 4.53482e-05
3 *625:B 9.90435e-05
4 *622:B 4.53482e-05
5 *621:Y 0.00040589
6 *113:35 0.00212754
7 *113:24 0.00221277
8 *113:15 0.000590162
9 *625:B *625:A 0
10 *625:B *116:22 0
11 *1077:A1 *126:11 0
12 *113:15 *621:B 0
13 *113:15 *624:B 0
14 *113:15 *1065:B1_N 0
15 *113:15 *1066:A2 0
16 *113:15 *116:13 0
17 *113:24 *1065:A2 0
18 *113:24 *1070:B 0
19 *113:24 *1077:B1 0
20 *113:35 *1064:A 0
21 *113:35 *1077:B1 0
22 *113:35 *445:8 0
23 *113:35 *559:11 0
24 *113:35 *564:10 0
25 *113:35 *564:19 0
26 *1121:D *113:35 0
27 *1123:D *113:35 0
28 *1186:D *113:35 0
29 *108:11 *1077:A1 0
30 *108:11 *113:24 0
*RES
1 *621:Y *113:15 27.1929 
2 *113:15 *113:24 17.5536 
3 *113:24 *113:35 18.6279 
4 *113:35 *622:B 14.7464 
5 *113:35 *625:B 16.05 
6 *113:24 *1077:A1 14.7464 
7 *113:15 *1065:A1 9.3 
*END

*D_NET *114 0.00211302
*CONN
*I *641:A1 I *D sky130_fd_sc_hd__o21ai_0
*I *629:A3 I *D sky130_fd_sc_hd__a32oi_1
*I *622:Y O *D sky130_fd_sc_hd__nor2_1
*CAP
1 *641:A1 0.000573697
2 *629:A3 9.90632e-05
3 *622:Y 0.000383748
4 *114:9 0.00105651
5 *629:A3 *455:10 0
6 *629:A3 *556:52 0
7 *641:A1 *1056:A 0
8 *641:A1 *559:8 0
9 *114:9 *559:8 0
10 *1181:D *114:9 0
*RES
1 *622:Y *114:9 17.3714 
2 *114:9 *629:A3 20.55 
3 *114:9 *641:A1 21.3357 
*END

*D_NET *115 0.000210484
*CONN
*I *1070:A I *D sky130_fd_sc_hd__nor2_1
*I *623:Y O *D sky130_fd_sc_hd__nor2_1
*CAP
1 *1070:A 0.000105242
2 *623:Y 0.000105242
3 *1070:A *1070:B 0
4 *1070:A *1071:B 0
5 *1070:A *1074:B2 0
*RES
1 *623:Y *1070:A 20.7964 
*END

*D_NET *116 0.0046692
*CONN
*I *1064:B I *D sky130_fd_sc_hd__nand2_1
*I *625:C I *D sky130_fd_sc_hd__nor3_1
*I *624:Y O *D sky130_fd_sc_hd__nor3_1
*CAP
1 *1064:B 2.94948e-05
2 *625:C 0
3 *624:Y 0.000620757
4 *116:22 0.00168435
5 *116:13 0.0023346
6 *1064:B *1064:A 0
7 *116:13 *621:B 0
8 *116:13 *624:A 0
9 *116:13 *624:B 0
10 *116:13 *624:C 0
11 *116:13 *1066:A1 0
12 *116:13 *1066:A2 0
13 *116:13 *564:19 0
14 *116:22 *637:A2 0
15 *116:22 *564:5 0
16 *116:22 *564:10 0
17 *625:B *116:22 0
18 *108:11 *116:22 0
19 *113:15 *116:13 0
*RES
1 *624:Y *116:13 26.8179 
2 *116:13 *116:22 48.75 
3 *116:22 *625:C 9.3 
4 *116:13 *1064:B 14.5321 
*END

*D_NET *117 0.000578403
*CONN
*I *630:A2 I *D sky130_fd_sc_hd__o21ai_0
*I *637:A3 I *D sky130_fd_sc_hd__a32oi_1
*I *625:Y O *D sky130_fd_sc_hd__nor3_1
*CAP
1 *630:A2 0.000150804
2 *637:A3 0.000138397
3 *625:Y 0
4 *117:4 0.000289202
5 *630:A2 *637:A1 0
6 *637:A3 *637:A1 0
7 *630:A1 *630:A2 0
*RES
1 *625:Y *117:4 9.3 
2 *117:4 *637:A3 12.3357 
3 *117:4 *630:A2 12.7643 
*END

*D_NET *118 0.000604072
*CONN
*I *641:A2 I *D sky130_fd_sc_hd__o21ai_0
*I *626:Y O *D sky130_fd_sc_hd__nand2_1
*CAP
1 *641:A2 0.000302036
2 *626:Y 0.000302036
3 *641:A2 *708:B1 0
*RES
1 *626:Y *641:A2 24.9036 
*END

*D_NET *119 0.0083767
*CONN
*I *1058:A2 I *D sky130_fd_sc_hd__o41ai_1
*I *639:A I *D sky130_fd_sc_hd__nor2_1
*I *628:SLEEP I *D sky130_fd_sc_hd__lpflow_isobufsrc_1
*I *643:A1 I *D sky130_fd_sc_hd__o32ai_1
*I *638:A1 I *D sky130_fd_sc_hd__o21ai_0
*I *1077:A2 I *D sky130_fd_sc_hd__o41ai_1
*I *1070:B I *D sky130_fd_sc_hd__nor2_1
*I *1066:B1 I *D sky130_fd_sc_hd__a21oi_1
*I *627:Y O *D sky130_fd_sc_hd__nand2b_1
*CAP
1 *1058:A2 0.000128772
2 *639:A 0
3 *628:SLEEP 6.50276e-05
4 *643:A1 0
5 *638:A1 0
6 *1077:A2 0
7 *1070:B 0.000432601
8 *1066:B1 9.90042e-05
9 *627:Y 0.000183711
10 *119:72 0.000128772
11 *119:61 0.000157346
12 *119:31 0.00068519
13 *119:27 0.000752523
14 *119:24 0.00205245
15 *119:13 0.00252671
16 *119:8 0.00116459
17 *628:SLEEP *643:B2 0
18 *1058:A2 *1058:A1 0
19 *1058:A2 *1058:A3 0
20 *1058:A2 *1058:A4 0
21 *1066:B1 *1066:A2 0
22 *1070:B *623:A 0
23 *1070:B *1066:A2 0
24 *1070:B *1072:A1 0
25 *1070:B *1074:B2 0
26 *1070:B *1077:A4 0
27 *1070:B *562:29 0
28 *119:8 *1058:B1 0
29 *119:8 *124:19 0
30 *119:8 *567:27 0
31 *119:13 uo_out[5] 0
32 *119:13 *640:B 0
33 *119:13 *643:A3 0
34 *119:13 *1058:B1 0
35 *119:13 *1065:A2 0
36 *119:13 *127:20 0
37 *119:13 *455:344 0
38 *119:13 *567:27 0
39 *119:13 *567:39 0
40 *119:13 *567:43 0
41 *119:24 *1064:A 0
42 *119:24 *127:20 0
43 *119:24 *127:32 0
44 *119:24 *559:11 0
45 *119:24 *567:43 0
46 *119:27 *638:A2 0
47 *119:27 *126:11 0
48 *119:31 *1065:B1_N 0
49 *119:31 *126:11 0
50 *119:61 *642:A 0
51 *119:61 *556:52 0
52 *119:61 *611:46 0
53 *1070:A *1070:B 0
54 *1183:D *1058:A2 0
55 *113:24 *1070:B 0
*RES
1 *627:Y *119:8 17.8179 
2 *119:8 *119:13 8.72615 
3 *119:13 *119:24 13.4069 
4 *119:24 *119:27 12.5625 
5 *119:27 *119:31 7.70536 
6 *119:31 *1066:B1 16.05 
7 *119:31 *1070:B 23.2286 
8 *119:27 *1077:A2 9.3 
9 *119:24 *638:A1 9.3 
10 *119:13 *119:61 10.0082 
11 *119:61 *643:A1 9.3 
12 *119:61 *628:SLEEP 10.6571 
13 *119:8 *119:72 4.5 
14 *119:72 *639:A 9.3 
15 *119:72 *1058:A2 11.9875 
*END

*D_NET *120 0.00139939
*CONN
*I *1079:B2 I *D sky130_fd_sc_hd__a22o_1
*I *629:B1 I *D sky130_fd_sc_hd__a32oi_1
*I *643:B2 I *D sky130_fd_sc_hd__o32ai_1
*I *628:X O *D sky130_fd_sc_hd__lpflow_isobufsrc_1
*CAP
1 *1079:B2 0.000207025
2 *629:B1 0.000248818
3 *643:B2 0.000216687
4 *628:X 0
5 *120:15 0.000483009
6 *120:4 0.000243853
7 *629:B1 *629:B2 0
8 *629:B1 *642:A 0
9 *629:B1 *556:52 0
10 *629:B1 *557:18 0
11 *1079:B2 *642:A 0
12 *1079:B2 *557:7 0
13 *1079:B2 *557:18 0
14 *628:SLEEP *643:B2 0
*RES
1 *628:X *120:4 9.3 
2 *120:4 *643:B2 13.8536 
3 *120:4 *120:15 5.03571 
4 *120:15 *629:B1 19.3893 
5 *120:15 *1079:B2 18.3357 
*END

*D_NET *121 0.000485996
*CONN
*I *630:B1 I *D sky130_fd_sc_hd__o21ai_0
*I *629:Y O *D sky130_fd_sc_hd__a32oi_1
*CAP
1 *630:B1 0.000242998
2 *629:Y 0.000242998
3 *630:B1 *620:B 0
4 *630:B1 *629:B2 0
5 *630:B1 *637:A1 0
6 *630:B1 *556:53 0
7 *630:A1 *630:B1 0
8 *1181:D *630:B1 0
*RES
1 *629:Y *630:B1 23.6714 
*END

*D_NET *122 0.000210484
*CONN
*I *1076:B1 I *D sky130_fd_sc_hd__a21oi_1
*I *631:Y O *D sky130_fd_sc_hd__nor3_1
*CAP
1 *1076:B1 0.000105242
2 *631:Y 0.000105242
3 *1076:B1 *631:B 0
4 *1076:B1 *1077:A4 0
*RES
1 *631:Y *1076:B1 20.7964 
*END

*D_NET *123 0.00421363
*CONN
*I *635:B I *D sky130_fd_sc_hd__nand3_1
*I *643:A2 I *D sky130_fd_sc_hd__o32ai_1
*I *632:Y O *D sky130_fd_sc_hd__o31ai_1
*CAP
1 *635:B 0
2 *643:A2 0.0016867
3 *632:Y 0.000420112
4 *123:7 0.00210681
5 *643:A2 uio_oe[4] 0
6 *643:A2 uio_out[5] 0
7 *643:A2 *628:A 0
8 *643:A2 *635:C 0
9 *123:7 *561:17 0
10 *1179:D *643:A2 0
11 *1187:D *123:7 0
*RES
1 *632:Y *123:7 18.0679 
2 *123:7 *643:A2 36.821 
3 *123:7 *635:B 9.3 
*END

*D_NET *124 0.00766414
*CONN
*I *634:B I *D sky130_fd_sc_hd__nand2_1
*I *635:C I *D sky130_fd_sc_hd__nand3_1
*I *1058:A3 I *D sky130_fd_sc_hd__o41ai_1
*I *639:B I *D sky130_fd_sc_hd__nor2_1
*I *633:Y O *D sky130_fd_sc_hd__xnor2_1
*CAP
1 *634:B 2.0535e-05
2 *635:C 0.00247943
3 *1058:A3 0.000157649
4 *639:B 0
5 *633:Y 0.000875947
6 *124:23 0.000294235
7 *124:19 0.00277794
8 *124:15 0.00105841
9 *634:B *634:A 0
10 *635:C uio_oe[0] 0
11 *635:C uio_oe[6] 0
12 *635:C uio_out[1] 0
13 *635:C uio_out[2] 0
14 *635:C uio_out[3] 0
15 *635:C uio_out[5] 0
16 *635:C uio_out[6] 0
17 *635:C uio_out[7] 0
18 *635:C uo_out[5] 0
19 *635:C *558:39 0
20 *635:C *563:9 0
21 *635:C *592:18 0
22 *635:C *594:22 0
23 *124:15 *616:A 0
24 *124:15 *616:SLEEP 0
25 *124:15 *634:A 0
26 *124:15 *1183:CLK 0
27 *124:15 *555:9 0
28 *124:15 *555:11 0
29 *124:15 *565:24 0
30 *124:15 *590:7 0
31 *124:15 *590:31 0
32 *124:15 *594:8 0
33 *124:19 *634:A 0
34 *124:19 *636:A 0
35 *124:19 *558:46 0
36 *124:23 *556:45 0
37 *124:23 *567:27 0
38 *643:A2 *635:C 0
39 *1058:A2 *1058:A3 0
40 *1183:D *124:15 0
41 *119:8 *124:19 0
*RES
1 *633:Y *124:15 27.8 
2 *124:15 *124:19 7.91071 
3 *124:19 *124:23 7.58929 
4 *124:23 *639:B 9.3 
5 *124:23 *1058:A3 12.6214 
6 *124:19 *635:C 31.6211 
7 *124:15 *634:B 9.72857 
*END

*D_NET *125 0.00321558
*CONN
*I *643:A3 I *D sky130_fd_sc_hd__o32ai_1
*I *1060:A1 I *D sky130_fd_sc_hd__a21oi_1
*I *634:Y O *D sky130_fd_sc_hd__nand2_1
*CAP
1 *643:A3 0.00109305
2 *1060:A1 0.000451862
3 *634:Y 6.28829e-05
4 *125:6 0.00160779
5 *643:A3 uio_out[2] 0
6 *643:A3 *1065:A2 0
7 *643:A3 *127:20 0
8 *643:A3 *558:39 0
9 *643:A3 *611:46 0
10 *1060:A1 *626:A 0
11 *1060:A1 *1058:A4 0
12 *1060:A1 *1059:A 0
13 *1060:A1 *1060:A2 0
14 *1060:A1 *1504:A 0
15 *1060:A1 *439:5 0
16 *125:6 *1504:A 0
17 *1183:D *125:6 0
18 *119:13 *643:A3 0
*RES
1 *634:Y *125:6 15.2911 
2 *125:6 *1060:A1 23.3268 
3 *125:6 *643:A3 25.0669 
*END

*D_NET *126 0.0019936
*CONN
*I *638:A2 I *D sky130_fd_sc_hd__o21ai_0
*I *1077:A3 I *D sky130_fd_sc_hd__o41ai_1
*I *1065:B1_N I *D sky130_fd_sc_hd__a21boi_0
*I *635:Y O *D sky130_fd_sc_hd__nand3_1
*CAP
1 *638:A2 4.23535e-05
2 *1077:A3 0
3 *1065:B1_N 0.000163425
4 *635:Y 0.00017925
5 *126:11 0.000775197
6 *126:8 0.000833376
7 *1065:B1_N *1077:B1 0
8 *126:11 *638:B1 0
9 *1077:A1 *126:11 0
10 *1186:D *126:8 0
11 *108:11 *638:A2 0
12 *108:11 *126:11 0
13 *113:15 *1065:B1_N 0
14 *119:27 *638:A2 0
15 *119:27 *126:11 0
16 *119:31 *1065:B1_N 0
17 *119:31 *126:11 0
*RES
1 *635:Y *126:8 22.3714 
2 *126:8 *126:11 12.7679 
3 *126:11 *1065:B1_N 12.7107 
4 *126:11 *1077:A3 9.3 
5 *126:8 *638:A2 10.2464 
*END

*D_NET *127 0.00778999
*CONN
*I *1057:B I *D sky130_fd_sc_hd__nand2_1
*I *1079:A2 I *D sky130_fd_sc_hd__a22o_1
*I *1074:A2 I *D sky130_fd_sc_hd__a22o_1
*I *1068:B I *D sky130_fd_sc_hd__nand2_1
*I *1067:A1 I *D sky130_fd_sc_hd__mux2_1
*I *1075:B I *D sky130_fd_sc_hd__nand2_1
*I *637:B1 I *D sky130_fd_sc_hd__a32oi_1
*I *636:X O *D sky130_fd_sc_hd__and2_0
*CAP
1 *1057:B 7.37977e-05
2 *1079:A2 0
3 *1074:A2 0.000154966
4 *1068:B 0.00015596
5 *1067:A1 0
6 *1075:B 0.000365349
7 *637:B1 0.00011912
8 *636:X 0
9 *127:56 0.00049484
10 *127:33 0.000374748
11 *127:32 0.00157609
12 *127:20 0.00247524
13 *127:11 0.00144972
14 *127:4 0.000550168
15 *637:B1 *637:B2 0
16 *637:B1 *638:B1 0
17 *1057:B *636:A 0
18 *1057:B *558:46 0
19 *1068:B *1077:A4 0
20 *1068:B *561:38 0
21 *1074:A2 *1077:A4 0
22 *1074:A2 *562:28 0
23 *1075:B *632:B1 0
24 *1075:B *1066:A1 0
25 *1075:B *1067:S 0
26 *1075:B *445:8 0
27 *127:11 *636:A 0
28 *127:11 *1079:B1 0
29 *127:11 *558:46 0
30 *127:20 *637:B2 0
31 *127:20 *1065:A2 0
32 *127:20 *1078:B 0
33 *127:20 *558:39 0
34 *127:20 *592:8 0
35 *127:32 uio_oe[1] 0
36 *127:32 uio_oe[2] 0
37 *127:32 uio_oe[3] 0
38 *127:32 uio_out[7] 0
39 *127:32 *1064:A 0
40 *127:32 *562:9 0
41 *127:32 *563:9 0
42 *127:56 *1067:S 0
43 *127:56 *1074:B1 0
44 *127:56 *561:38 0
45 *643:A3 *127:20 0
46 *1186:D *127:32 0
47 *1189:D *127:20 0
48 *105:12 *1074:A2 0
49 *119:13 *127:20 0
50 *119:24 *127:20 0
51 *119:24 *127:32 0
*RES
1 *636:X *127:4 9.3 
2 *127:4 *127:11 10.1429 
3 *127:11 *127:20 18.9888 
4 *127:20 *637:B1 16.5054 
5 *127:20 *127:32 11.8396 
6 *127:32 *127:33 0.276786 
7 *127:33 *1075:B 21.55 
8 *127:33 *1067:A1 13.8 
9 *127:32 *127:56 8.58036 
10 *127:56 *1068:B 21.6214 
11 *127:56 *1074:A2 21.7643 
12 *127:11 *1079:A2 9.3 
13 *127:4 *1057:B 10.9786 
*END

*D_NET *128 0.00198296
*CONN
*I *638:B1 I *D sky130_fd_sc_hd__o21ai_0
*I *637:Y O *D sky130_fd_sc_hd__a32oi_1
*CAP
1 *638:B1 0.000991481
2 *637:Y 0.000991481
3 *638:B1 *635:A 0
4 *638:B1 *637:B2 0
5 *638:B1 *558:23 0
6 *637:B1 *638:B1 0
7 *1180:D *638:B1 0
8 *126:11 *638:B1 0
*RES
1 *637:Y *638:B1 48.475 
*END

*D_NET *129 0.00038532
*CONN
*I *640:B I *D sky130_fd_sc_hd__nand2_1
*I *639:Y O *D sky130_fd_sc_hd__nor2_1
*CAP
1 *640:B 0.00019266
2 *639:Y 0.00019266
3 *640:B uo_out[5] 0
4 *640:B *567:27 0
5 *119:13 *640:B 0
*RES
1 *639:Y *640:B 31.975 
*END

*D_NET *130 0.000301518
*CONN
*I *641:B1 I *D sky130_fd_sc_hd__o21ai_0
*I *640:Y O *D sky130_fd_sc_hd__nand2_1
*CAP
1 *641:B1 0.000150759
2 *640:Y 0.000150759
3 *641:B1 *567:27 0
*RES
1 *640:Y *641:B1 30.9036 
*END

*D_NET *131 0.000171463
*CONN
*I *643:B1 I *D sky130_fd_sc_hd__o32ai_1
*I *642:X O *D sky130_fd_sc_hd__lpflow_isobufsrc_1
*CAP
1 *643:B1 8.57316e-05
2 *642:X 8.57316e-05
3 *643:B1 *611:46 0
*RES
1 *642:X *643:B1 29.5464 
*END

*D_NET *132 0.00862863
*CONN
*I *710:A2 I *D sky130_fd_sc_hd__a22o_1
*I *678:A2 I *D sky130_fd_sc_hd__a222oi_1
*I *671:A2 I *D sky130_fd_sc_hd__a22o_1
*I *686:A2 I *D sky130_fd_sc_hd__a22o_1
*I *663:C2 I *D sky130_fd_sc_hd__a222oi_1
*I *702:A2 I *D sky130_fd_sc_hd__a222oi_1
*I *717:A2 I *D sky130_fd_sc_hd__a222oi_1
*I *693:A2 I *D sky130_fd_sc_hd__a222oi_1
*I *645:Y O *D sky130_fd_sc_hd__nor4_1
*CAP
1 *710:A2 0.000143745
2 *678:A2 0.000569181
3 *671:A2 4.47065e-05
4 *686:A2 3.84815e-05
5 *663:C2 1.24066e-05
6 *702:A2 0.00011551
7 *717:A2 1.02675e-05
8 *693:A2 0.000639754
9 *645:Y 0.000169733
10 *132:93 0.000755493
11 *132:77 0.000285777
12 *132:76 0.00131659
13 *132:26 0.00119904
14 *132:21 0.00110387
15 *132:12 0.000719469
16 *132:6 0.0015046
17 *671:A2 *671:A1 0
18 *671:A2 *704:A2 0
19 *678:A2 *676:A1 0
20 *678:A2 *678:B1 0
21 *678:A2 *697:C2 0
22 *678:A2 *704:A2 0
23 *678:A2 *741:B 0
24 *678:A2 *148:14 0
25 *693:A2 *666:A1 0
26 *693:A2 *668:A 0
27 *693:A2 *668:C 0
28 *693:A2 *693:B1 0
29 *693:A2 *713:A2 0
30 *693:A2 *983:A 0
31 *693:A2 *134:47 0
32 *693:A2 *144:70 0
33 *702:A2 *702:A1 0
34 *702:A2 *702:B1 0
35 *702:A2 *765:C 0
36 *710:A2 *715:A1 0
37 *132:6 *650:B 0
38 *132:6 *663:B2 0
39 *132:6 *141:10 0
40 *132:6 *533:20 0
41 *132:12 *663:B2 0
42 *132:12 *137:10 0
43 *132:12 *146:16 0
44 *132:12 *534:16 0
45 *132:21 *663:C1 0
46 *132:21 *669:A1 0
47 *132:21 *669:A2 0
48 *132:21 *669:B1 0
49 *132:21 *702:A1 0
50 *132:21 *137:22 0
51 *132:21 *533:20 0
52 *132:21 *534:16 0
53 *132:26 *669:A2 0
54 *132:26 *675:A 0
55 *132:26 *681:C1 0
56 *132:26 *683:A 0
57 *132:26 *683:C 0
58 *132:26 *713:A2 0
59 *132:26 *144:34 0
60 *132:26 *144:38 0
61 *132:26 *144:70 0
62 *132:76 *663:B2 0
63 *132:76 *687:A1 0
64 *132:76 *709:A1 0
65 *132:76 *709:B2 0
66 *132:76 *721:C2 0
67 *132:76 *979:A 0
68 *132:76 *136:16 0
69 *132:76 *140:32 0
70 *132:76 *532:47 0
71 *132:77 *710:A1 0
72 *132:77 *567:71 0
73 *132:93 *686:A1 0
74 *132:93 *704:A2 0
75 *1163:D *686:A2 0
*RES
1 *645:Y *132:6 17.7196 
2 *132:6 *132:12 6.20536 
3 *132:12 *132:21 14.1607 
4 *132:21 *132:26 17 
5 *132:26 *693:A2 36.8536 
6 *132:26 *717:A2 14.0143 
7 *132:21 *702:A2 11.8357 
8 *132:12 *663:C2 14.0589 
9 *132:6 *132:76 10.6865 
10 *132:76 *132:77 2.40179 
11 *132:77 *686:A2 14.7643 
12 *132:77 *132:93 7.64286 
13 *132:93 *671:A2 10.2643 
14 *132:93 *678:A2 31.1929 
15 *132:76 *710:A2 16.8 
*END

*D_NET *133 0.00172987
*CONN
*I *647:C I *D sky130_fd_sc_hd__nor3_1
*I *655:A I *D sky130_fd_sc_hd__nor2_1
*I *661:A I *D sky130_fd_sc_hd__nor2_1
*I *646:Y O *D sky130_fd_sc_hd__nand2_1
*CAP
1 *647:C 0.000337117
2 *655:A 2.0535e-05
3 *661:A 0.000308135
4 *646:Y 0
5 *133:7 0.000527817
6 *133:4 0.000536264
7 *647:C *646:A 0
8 *647:C *647:A 0
9 *647:C *660:A 0
10 *647:C *203:71 0
11 *647:C *569:34 0
12 *647:C *569:50 0
13 *647:C *572:38 0
14 *661:A *1504:A 0
15 *661:A *142:8 0
16 *133:7 *498:25 0
*RES
1 *646:Y *133:4 9.3 
2 *133:4 *133:7 4.25 
3 *133:7 *661:A 24.8893 
4 *133:7 *655:A 9.72857 
5 *133:4 *647:C 25.8 
*END

*D_NET *134 0.0097005
*CONN
*I *705:A2 I *D sky130_fd_sc_hd__a22oi_1
*I *672:A2 I *D sky130_fd_sc_hd__a22oi_1
*I *667:C2 I *D sky130_fd_sc_hd__a222oi_1
*I *688:A2 I *D sky130_fd_sc_hd__a222oi_1
*I *677:B I *D sky130_fd_sc_hd__nand2_1
*I *713:C2 I *D sky130_fd_sc_hd__a222oi_1
*I *693:B1 I *D sky130_fd_sc_hd__a222oi_1
*I *716:B I *D sky130_fd_sc_hd__nand2_1
*I *647:Y O *D sky130_fd_sc_hd__nor3_1
*CAP
1 *705:A2 3.76475e-05
2 *672:A2 0.000453804
3 *667:C2 0.000425363
4 *688:A2 0
5 *677:B 0.000150366
6 *713:C2 1.94762e-05
7 *693:B1 0.000144173
8 *716:B 0.000341395
9 *647:Y 0.000380858
10 *134:101 0.00116254
11 *134:74 0.000833924
12 *134:64 0.00149591
13 *134:47 0.000451771
14 *134:34 0.000551946
15 *134:30 0.00153559
16 *134:14 0.00171574
17 *667:C2 *667:B1 0
18 *667:C2 *667:B2 0
19 *667:C2 *694:A1 0
20 *667:C2 *985:A 0
21 *667:C2 *145:38 0
22 *667:C2 *147:79 0
23 *667:C2 *149:22 0
24 *667:C2 *195:10 0
25 *667:C2 *469:14 0
26 *672:A2 *672:B1 0
27 *672:A2 *705:A1 0
28 *672:A2 *468:55 0
29 *677:B *693:C1 0
30 *677:B *713:A1 0
31 *677:B *713:B1 0
32 *693:B1 *693:C1 0
33 *705:A2 *705:A1 0
34 *716:B *682:A1 0
35 *716:B *722:A 0
36 *716:B *148:74 0
37 *134:14 *660:A 0
38 *134:14 *738:A 0
39 *134:14 *203:71 0
40 *134:14 *498:25 0
41 *134:30 *673:C2 0
42 *134:30 *675:C 0
43 *134:30 *675:D 0
44 *134:30 *676:A2 0
45 *134:30 *682:A1 0
46 *134:30 *738:A 0
47 *134:30 *139:45 0
48 *134:30 *139:49 0
49 *134:30 *148:74 0
50 *134:30 *158:20 0
51 *134:30 *176:17 0
52 *134:30 *512:14 0
53 *134:34 *983:A 0
54 *134:34 *139:49 0
55 *134:34 *176:17 0
56 *134:34 *534:20 0
57 *134:47 *693:C1 0
58 *134:47 *713:C1 0
59 *134:64 *139:53 0
60 *134:74 *688:A1 0
61 *134:74 *714:D 0
62 *134:74 *195:10 0
63 *134:101 *707:D 0
64 *134:101 *714:A 0
65 *134:101 *1173:RESET_B 0
66 *134:101 *145:31 0
67 *134:101 *218:10 0
68 *134:101 *468:55 0
69 *134:101 *518:49 0
70 *693:A2 *693:B1 0
71 *693:A2 *134:47 0
72 *1160:D *672:A2 0
73 *1160:D *134:101 0
*RES
1 *647:Y *134:14 26.925 
2 *134:14 *716:B 16.425 
3 *134:14 *134:30 27 
4 *134:30 *134:34 7.35714 
5 *134:34 *693:B1 12.5411 
6 *134:34 *134:47 5.99107 
7 *134:47 *713:C2 9.72857 
8 *134:47 *677:B 12.6304 
9 *134:30 *134:64 13.25 
10 *134:64 *134:74 8.71429 
11 *134:74 *688:A2 9.3 
12 *134:74 *667:C2 36.5054 
13 *134:64 *134:101 19.8036 
14 *134:101 *672:A2 23.675 
15 *134:101 *705:A2 14.5857 
*END

*D_NET *135 0.00101209
*CONN
*I *652:C I *D sky130_fd_sc_hd__nor3_1
*I *650:A I *D sky130_fd_sc_hd__nor2_1
*I *654:A I *D sky130_fd_sc_hd__nor2_1
*I *648:Y O *D sky130_fd_sc_hd__nand2b_1
*CAP
1 *652:C 0.000104386
2 *650:A 0
3 *654:A 2.56688e-05
4 *648:Y 0.000276968
5 *135:20 0.00020341
6 *135:9 0.000401661
7 *652:C *141:55 0
8 *654:A *659:A 0
9 *135:9 *652:B 0
10 *135:9 *659:B 0
11 *135:9 *703:B 0
12 *135:9 *1512:A 0
13 *135:9 *571:11 0
14 *135:9 *572:11 0
15 *135:20 *663:B2 0
16 *135:20 *533:20 0
*RES
1 *648:Y *135:9 24.4429 
2 *135:9 *654:A 9.83571 
3 *135:9 *135:20 11.25 
4 *135:20 *650:A 9.3 
5 *135:20 *652:C 11.4786 
*END

*D_NET *136 0.00250662
*CONN
*I *650:B I *D sky130_fd_sc_hd__nor2_1
*I *659:C I *D sky130_fd_sc_hd__nor3_1
*I *655:B I *D sky130_fd_sc_hd__nor2_1
*I *657:A I *D sky130_fd_sc_hd__nor2_1
*I *649:Y O *D sky130_fd_sc_hd__nand2b_1
*CAP
1 *650:B 0.00017563
2 *659:C 9.14339e-06
3 *655:B 0.000216413
4 *657:A 2.56688e-05
5 *649:Y 0.000399847
6 *136:16 0.000645097
7 *136:10 0.000435754
8 *136:8 0.000599072
9 *650:B *137:10 0
10 *650:B *141:10 0
11 *650:B *141:15 0
12 *650:B *141:55 0
13 *650:B *146:16 0
14 *650:B *203:71 0
15 *655:B *1504:A 0
16 *655:B *498:25 0
17 *657:A *140:38 0
18 *136:8 *663:B2 0
19 *136:8 *140:8 0
20 *136:8 *203:71 0
21 *136:8 *572:25 0
22 *136:8 *572:27 0
23 *136:16 *687:A1 0
24 *132:6 *650:B 0
25 *132:76 *136:16 0
*RES
1 *649:Y *136:8 22.4696 
2 *136:8 *136:10 0.535714 
3 *136:10 *136:16 8.51305 
4 *136:16 *657:A 14.3357 
5 *136:16 *655:B 18.7821 
6 *136:10 *659:C 14.0768 
7 *136:8 *650:B 17.6661 
*END

*D_NET *137 0.00556816
*CONN
*I *720:A2 I *D sky130_fd_sc_hd__a222oi_1
*I *689:A2 I *D sky130_fd_sc_hd__a222oi_1
*I *681:A2 I *D sky130_fd_sc_hd__a222oi_1
*I *651:B I *D sky130_fd_sc_hd__nand2_1
*I *713:A2 I *D sky130_fd_sc_hd__a222oi_1
*I *700:B I *D sky130_fd_sc_hd__nand2_1
*I *674:A2 I *D sky130_fd_sc_hd__a222oi_1
*I *697:A2 I *D sky130_fd_sc_hd__a222oi_1
*I *650:Y O *D sky130_fd_sc_hd__nor2_1
*CAP
1 *720:A2 1.02675e-05
2 *689:A2 0.000205768
3 *681:A2 3.38634e-05
4 *651:B 0.000234869
5 *713:A2 0.000528665
6 *700:B 0.00018377
7 *674:A2 0.000115639
8 *697:A2 7.27282e-06
9 *650:Y 0.000477794
10 *137:55 0.000763534
11 *137:44 0.000306862
12 *137:42 0.000239914
13 *137:41 0.000626272
14 *137:27 0.00054415
15 *137:22 0.000452844
16 *137:10 0.000836677
17 *651:B *668:A 0
18 *651:B *692:A 0
19 *651:B *764:C 0
20 *674:A2 *669:A2 0
21 *674:A2 *717:A1 0
22 *681:A2 *681:A1 0
23 *681:A2 *681:B2 0
24 *689:A2 *689:A1 0
25 *689:A2 *754:B 0
26 *689:A2 *764:D 0
27 *689:A2 *767:D 0
28 *700:B *720:A1 0
29 *700:B *764:C 0
30 *700:B *241:8 0
31 *713:A2 *683:A 0
32 *713:A2 *692:A 0
33 *713:A2 *698:A 0
34 *713:A2 *713:A1 0
35 *713:A2 *713:B1 0
36 *713:A2 *144:70 0
37 *713:A2 *245:15 0
38 *137:10 *720:C1 0
39 *137:10 *146:16 0
40 *137:10 *534:16 0
41 *137:22 uo_out[0] 0
42 *137:22 *669:A2 0
43 *137:22 *533:20 0
44 *137:22 *534:16 0
45 *137:22 *534:20 0
46 *137:27 *717:A1 0
47 *137:27 *720:B2 0
48 *137:41 *675:A 0
49 *137:41 *702:C1 0
50 *137:41 *720:A1 0
51 *137:42 *764:D 0
52 *137:42 *485:32 0
53 *137:44 *764:C 0
54 *137:44 *764:D 0
55 *137:44 *241:8 0
56 *137:44 *485:32 0
57 *650:B *137:10 0
58 *693:A2 *713:A2 0
59 *132:12 *137:10 0
60 *132:21 *137:22 0
61 *132:26 *713:A2 0
*RES
1 *650:Y *137:10 28.9964 
2 *137:10 *697:A2 9.51429 
3 *137:10 *137:22 12.1964 
4 *137:22 *137:27 6.48214 
5 *137:27 *674:A2 20.8714 
6 *137:27 *137:41 11.6071 
7 *137:41 *137:42 1.94643 
8 *137:42 *137:44 2.85714 
9 *137:44 *700:B 17.8179 
10 *137:44 *137:55 4.5 
11 *137:55 *713:A2 29.8536 
12 *137:55 *651:B 14.2643 
13 *137:42 *681:A2 14.55 
14 *137:41 *689:A2 18.4071 
15 *137:22 *720:A2 14.0143 
*END

*D_NET *138 0.00141121
*CONN
*I *668:A I *D sky130_fd_sc_hd__nand3_1
*I *651:Y O *D sky130_fd_sc_hd__nand2_1
*CAP
1 *668:A 0.000705606
2 *651:Y 0.000705606
3 *668:A *697:A1 0
4 *668:A *717:C2 0
5 *668:A *755:D 0
6 *668:A *764:B 0
7 *668:A *475:8 0
8 *668:A *485:32 0
9 *651:B *668:A 0
10 *693:A2 *668:A 0
*RES
1 *651:Y *668:A 42.6 
*END

*D_NET *139 0.0105628
*CONN
*I *697:B1 I *D sky130_fd_sc_hd__a222oi_1
*I *673:A2 I *D sky130_fd_sc_hd__a222oi_1
*I *666:C2 I *D sky130_fd_sc_hd__a222oi_1
*I *712:A2 I *D sky130_fd_sc_hd__a222oi_1
*I *718:A2 I *D sky130_fd_sc_hd__a22oi_1
*I *686:B1 I *D sky130_fd_sc_hd__a22o_1
*I *704:A2 I *D sky130_fd_sc_hd__a222oi_1
*I *682:A2 I *D sky130_fd_sc_hd__a222oi_1
*I *652:Y O *D sky130_fd_sc_hd__nor3_1
*CAP
1 *697:B1 6.09634e-05
2 *673:A2 2.99469e-05
3 *666:C2 8.72739e-05
4 *712:A2 1.02675e-05
5 *718:A2 0.000969112
6 *686:B1 0
7 *704:A2 0.000912664
8 *682:A2 9.59204e-05
9 *652:Y 0.000240095
10 *139:53 0.00149568
11 *139:49 0.000812379
12 *139:45 0.000642456
13 *139:43 0.000788109
14 *139:22 0.00187995
15 *139:20 0.00174635
16 *139:8 0.000791636
17 *666:C2 *666:A1 0
18 *666:C2 *666:B1 0
19 *666:C2 *666:C1 0
20 *666:C2 *668:B 0
21 *682:A2 *664:B1 0
22 *682:A2 *665:B 0
23 *682:A2 *682:B2 0
24 *704:A2 *671:A1 0
25 *704:A2 *686:A1 0
26 *704:A2 *697:C2 0
27 *704:A2 *704:B1 0
28 *704:A2 *723:A1 0
29 *704:A2 *873:B 0
30 *704:A2 *984:B 0
31 *704:A2 *148:21 0
32 *704:A2 *469:14 0
33 *704:A2 *517:46 0
34 *718:A2 *668:C 0
35 *718:A2 *693:A1 0
36 *718:A2 *711:B2 0
37 *718:A2 *712:C1 0
38 *718:A2 *983:A 0
39 *718:A2 *149:25 0
40 *718:A2 *218:10 0
41 *718:A2 *518:49 0
42 *139:8 *652:A 0
43 *139:8 *664:A1 0
44 *139:8 *682:B2 0
45 *139:8 *701:B 0
46 *139:20 *664:A2 0
47 *139:20 *664:B1 0
48 *139:20 *144:11 0
49 *139:22 *691:A1 0
50 *139:22 *142:15 0
51 *139:22 *144:11 0
52 *139:22 *513:53 0
53 *139:43 *663:B1 0
54 *139:43 *720:C1 0
55 *139:43 *738:A 0
56 *139:43 *146:16 0
57 *139:45 *720:C1 0
58 *139:45 *720:C2 0
59 *139:45 *738:A 0
60 *139:45 *147:28 0
61 *139:45 *534:20 0
62 *139:49 *666:B1 0
63 *139:49 *147:28 0
64 *139:49 *534:20 0
65 *139:53 *707:D 0
66 *139:53 *218:10 0
67 *671:A2 *704:A2 0
68 *678:A2 *704:A2 0
69 *132:93 *704:A2 0
70 *134:30 *139:45 0
71 *134:30 *139:49 0
72 *134:34 *139:49 0
73 *134:64 *139:53 0
*RES
1 *652:Y *139:8 19.05 
2 *139:8 *682:A2 15.9607 
3 *139:8 *139:20 14.0714 
4 *139:20 *139:22 20.25 
5 *139:22 *704:A2 38.4964 
6 *139:22 *686:B1 9.3 
7 *139:20 *139:43 11.9107 
8 *139:43 *139:45 9.23214 
9 *139:45 *139:49 9.17857 
10 *139:49 *139:53 15.5893 
11 *139:53 *718:A2 29.4916 
12 *139:53 *712:A2 14.0143 
13 *139:49 *666:C2 11.1839 
14 *139:45 *673:A2 14.425 
15 *139:43 *697:B1 15.1973 
*END

*D_NET *140 0.0024791
*CONN
*I *658:C I *D sky130_fd_sc_hd__nor3_1
*I *662:A I *D sky130_fd_sc_hd__nor2_1
*I *661:B I *D sky130_fd_sc_hd__nor2_1
*I *654:B I *D sky130_fd_sc_hd__nor2_1
*I *653:Y O *D sky130_fd_sc_hd__nand2b_1
*CAP
1 *658:C 0
2 *662:A 0
3 *661:B 0.000152611
4 *654:B 0.00010755
5 *653:Y 0.000259319
6 *140:38 0.000434326
7 *140:32 0.000720072
8 *140:8 0.000805225
9 *654:B *659:A 0
10 *654:B *659:B 0
11 *654:B *663:B2 0
12 *661:B *662:B 0
13 *661:B *709:A1 0
14 *661:B *142:10 0
15 *661:B *149:15 0
16 *140:8 *653:A_N 0
17 *140:8 *663:B2 0
18 *140:8 *571:30 0
19 *140:8 *571:42 0
20 *140:32 *658:B 0
21 *140:32 *660:C 0
22 *140:32 *687:A1 0
23 *140:38 *657:B 0
24 *140:38 *662:B 0
25 *140:38 *144:11 0
26 *140:38 *145:8 0
27 *657:A *140:38 0
28 *132:76 *140:32 0
29 *136:8 *140:8 0
*RES
1 *653:Y *140:8 19.4161 
2 *140:8 *654:B 16.0589 
3 *140:8 *140:32 17.3817 
4 *140:32 *140:38 5.91071 
5 *140:38 *661:B 21.6929 
6 *140:38 *662:A 9.3 
7 *140:32 *658:C 9.3 
*END

*D_NET *141 0.00601823
*CONN
*I *670:A2 I *D sky130_fd_sc_hd__a22oi_1
*I *702:B1 I *D sky130_fd_sc_hd__a222oi_1
*I *689:B1 I *D sky130_fd_sc_hd__a222oi_1
*I *682:B1 I *D sky130_fd_sc_hd__a222oi_1
*I *663:A2 I *D sky130_fd_sc_hd__a222oi_1
*I *709:A2 I *D sky130_fd_sc_hd__a22oi_1
*I *721:A2 I *D sky130_fd_sc_hd__a222oi_1
*I *697:C1 I *D sky130_fd_sc_hd__a222oi_1
*I *654:Y O *D sky130_fd_sc_hd__nor2_1
*CAP
1 *670:A2 7.05891e-06
2 *702:B1 9.28354e-05
3 *689:B1 0.000162896
4 *682:B1 3.7316e-05
5 *663:A2 7.27282e-06
6 *709:A2 0
7 *721:A2 2.99469e-05
8 *697:C1 0.000786514
9 *654:Y 0.000104279
10 *141:79 0.000338671
11 *141:77 0.0002133
12 *141:64 0.000354749
13 *141:55 0.000594607
14 *141:24 0.00120772
15 *141:15 0.00098742
16 *141:10 0.00109364
17 *682:B1 *682:A1 0
18 *689:B1 *670:A1 0
19 *689:B1 *689:A1 0
20 *689:B1 *689:B2 0
21 *689:B1 *702:C1 0
22 *689:B1 *764:D 0
23 *689:B1 *144:34 0
24 *689:B1 *245:15 0
25 *697:C1 *691:A1 0
26 *697:C1 *697:B2 0
27 *697:C1 *697:C2 0
28 *697:C1 *722:A 0
29 *697:C1 *722:C 0
30 *697:C1 *203:560 0
31 *697:C1 *567:132 0
32 *702:B1 *702:A1 0
33 *702:B1 *702:B2 0
34 *702:B1 *765:C 0
35 *141:15 *977:B 0
36 *141:24 *690:B 0
37 *141:24 *691:A1 0
38 *141:24 *709:B1 0
39 *141:24 *721:A1 0
40 *141:24 *721:C1 0
41 *141:24 *142:15 0
42 *141:24 *145:8 0
43 *141:55 *703:B 0
44 *141:55 *144:17 0
45 *141:55 *533:20 0
46 *141:64 *663:A1 0
47 *141:64 *665:B 0
48 *141:64 *682:A1 0
49 *141:77 *665:B 0
50 *141:77 *670:B1 0
51 *141:77 *682:A1 0
52 *141:79 *670:A1 0
53 *141:79 *670:B1 0
54 *141:79 *670:B2 0
55 *141:79 *683:C 0
56 *650:B *141:10 0
57 *650:B *141:15 0
58 *650:B *141:55 0
59 *652:C *141:55 0
60 *702:A2 *702:B1 0
61 *132:6 *141:10 0
*RES
1 *654:Y *141:10 20.5857 
2 *141:10 *141:15 12.567 
3 *141:15 *141:24 13.1652 
4 *141:24 *697:C1 30.6571 
5 *141:24 *721:A2 14.425 
6 *141:15 *709:A2 9.3 
7 *141:10 *141:55 17.6964 
8 *141:55 *663:A2 9.51429 
9 *141:55 *141:64 4.05357 
10 *141:64 *682:B1 10.1705 
11 *141:64 *141:77 7.375 
12 *141:77 *141:79 1.94643 
13 *141:79 *689:B1 17.4696 
14 *141:79 *702:B1 15.7375 
15 *141:77 *670:A2 13.9473 
*END

*D_NET *142 0.00777001
*CONN
*I *687:A2 I *D sky130_fd_sc_hd__a22oi_1
*I *709:B1 I *D sky130_fd_sc_hd__a22oi_1
*I *721:C1 I *D sky130_fd_sc_hd__a222oi_1
*I *701:B I *D sky130_fd_sc_hd__nand2_1
*I *664:A2 I *D sky130_fd_sc_hd__a22oi_1
*I *682:C2 I *D sky130_fd_sc_hd__a222oi_1
*I *670:B1 I *D sky130_fd_sc_hd__a22oi_1
*I *696:A2 I *D sky130_fd_sc_hd__a222oi_1
*I *655:Y O *D sky130_fd_sc_hd__nor2_1
*CAP
1 *687:A2 0.000175403
2 *709:B1 8.17123e-05
3 *721:C1 0.000422166
4 *701:B 0.000705663
5 *664:A2 0.000301823
6 *682:C2 1.24066e-05
7 *670:B1 0.000191174
8 *696:A2 0.000243001
9 *655:Y 0.000353803
10 *142:78 0.000503878
11 *142:32 0.00027311
12 *142:30 0.000414218
13 *142:29 0.00138426
14 *142:15 0.00131201
15 *142:10 0.000649727
16 *142:8 0.000745658
17 *664:A2 *664:B1 0
18 *670:B1 *663:A1 0
19 *670:B1 *665:B 0
20 *670:B1 *670:B2 0
21 *670:B1 *683:C 0
22 *687:A2 *690:B 0
23 *687:A2 *148:7 0
24 *696:A2 *146:16 0
25 *696:A2 *147:10 0
26 *696:A2 *147:14 0
27 *696:A2 *498:25 0
28 *701:B *664:A1 0
29 *701:B *682:C1 0
30 *701:B *687:A1 0
31 *701:B *708:A1 0
32 *701:B *750:C 0
33 *701:B *751:C 0
34 *701:B *472:10 0
35 *701:B *483:17 0
36 *701:B *497:14 0
37 *701:B *498:13 0
38 *701:B *498:25 0
39 *721:C1 *715:A1 0
40 *721:C1 *149:15 0
41 *721:C1 *513:30 0
42 *142:10 *690:B 0
43 *142:10 *709:B2 0
44 *142:15 *714:A 0
45 *142:15 *144:11 0
46 *142:15 *145:8 0
47 *142:15 *513:53 0
48 *142:29 *664:B1 0
49 *142:29 *144:11 0
50 *142:29 *534:16 0
51 *142:30 *682:B2 0
52 *142:30 *682:C1 0
53 *661:A *142:8 0
54 *661:B *142:10 0
55 *139:8 *701:B 0
56 *139:20 *664:A2 0
57 *139:22 *142:15 0
58 *141:24 *709:B1 0
59 *141:24 *721:C1 0
60 *141:24 *142:15 0
61 *141:77 *670:B1 0
62 *141:79 *670:B1 0
*RES
1 *655:Y *142:8 21.3179 
2 *142:8 *142:10 4.98214 
3 *142:10 *142:15 13.75 
4 *142:15 *696:A2 23.8 
5 *142:15 *142:29 17.7679 
6 *142:29 *142:30 1.03571 
7 *142:30 *142:32 1.64286 
8 *142:32 *670:B1 18.1571 
9 *142:32 *682:C2 14.0589 
10 *142:30 *664:A2 29.233 
11 *142:29 *701:B 29.3357 
12 *142:10 *142:78 4.5 
13 *142:78 *721:C1 27.5143 
14 *142:78 *709:B1 11.0679 
15 *142:8 *687:A2 17.4607 
*END

*D_NET *143 0.00140855
*CONN
*I *660:C I *D sky130_fd_sc_hd__nor3_1
*I *657:B I *D sky130_fd_sc_hd__nor2_1
*I *662:B I *D sky130_fd_sc_hd__nor2_1
*I *656:Y O *D sky130_fd_sc_hd__nand2b_1
*CAP
1 *660:C 0.00023315
2 *657:B 5.77548e-06
3 *662:B 0.000222677
4 *656:Y 0
5 *143:10 0.000471123
6 *143:4 0.000475821
7 *660:C *658:B 0
8 *660:C *660:A 0
9 *660:C *147:10 0
10 *662:B *149:15 0
11 *143:10 *656:A_N 0
12 *143:10 *656:B 0
13 *661:B *662:B 0
14 *140:32 *660:C 0
15 *140:38 *657:B 0
16 *140:38 *662:B 0
*RES
1 *656:Y *143:4 9.3 
2 *143:4 *143:10 14.25 
3 *143:10 *662:B 13.9786 
4 *143:10 *657:B 9.45179 
5 *143:4 *660:C 23.3893 
*END

*D_NET *144 0.0076585
*CONN
*I *664:B1 I *D sky130_fd_sc_hd__a22oi_1
*I *689:C1 I *D sky130_fd_sc_hd__a222oi_1
*I *681:B1 I *D sky130_fd_sc_hd__a222oi_1
*I *693:C1 I *D sky130_fd_sc_hd__a222oi_1
*I *713:B1 I *D sky130_fd_sc_hd__a222oi_1
*I *720:B1 I *D sky130_fd_sc_hd__a222oi_1
*I *674:B1 I *D sky130_fd_sc_hd__a222oi_1
*I *702:C2 I *D sky130_fd_sc_hd__a222oi_1
*I *657:Y O *D sky130_fd_sc_hd__nor2_1
*CAP
1 *664:B1 0.000399943
2 *689:C1 0
3 *681:B1 0.000187382
4 *693:C1 0.000576264
5 *713:B1 0.00012398
6 *720:B1 0.000177603
7 *674:B1 2.95191e-05
8 *702:C2 2.0535e-05
9 *657:Y 0.000890721
10 *144:70 0.00110397
11 *144:41 0.000355145
12 *144:39 0.000613781
13 *144:38 0.000455407
14 *144:34 0.000441775
15 *144:17 0.000624065
16 *144:11 0.00165841
17 *664:B1 *682:B2 0
18 *674:B1 *674:C2 0
19 *674:B1 *503:29 0
20 *681:B1 *681:A1 0
21 *681:B1 *681:B2 0
22 *681:B1 *681:C1 0
23 *681:B1 *683:B 0
24 *681:B1 *503:29 0
25 *693:C1 *693:B2 0
26 *713:B1 *666:C1 0
27 *713:B1 *677:A 0
28 *713:B1 *683:A 0
29 *713:B1 *713:B2 0
30 *720:B1 *674:B2 0
31 *720:B1 *675:A 0
32 *720:B1 *717:A1 0
33 *720:B1 *720:A1 0
34 *720:B1 *720:B2 0
35 *144:11 *147:10 0
36 *144:11 *148:62 0
37 *144:17 *665:A 0
38 *144:17 *675:A 0
39 *144:17 *702:A1 0
40 *144:17 *703:B 0
41 *144:17 *533:20 0
42 *144:34 *683:C 0
43 *144:34 *689:B2 0
44 *144:34 *702:A1 0
45 *144:38 *683:A 0
46 *144:38 *683:B 0
47 *144:38 *684:A2 0
48 *144:38 *689:B2 0
49 *144:38 *689:C2 0
50 *144:38 *702:C1 0
51 *144:39 *503:29 0
52 *144:41 *503:29 0
53 *144:70 *666:C1 0
54 *144:70 *669:A2 0
55 *144:70 *717:B2 0
56 *664:A2 *664:B1 0
57 *677:B *693:C1 0
58 *677:B *713:B1 0
59 *682:A2 *664:B1 0
60 *689:B1 *144:34 0
61 *693:A2 *144:70 0
62 *693:B1 *693:C1 0
63 *713:A2 *713:B1 0
64 *713:A2 *144:70 0
65 *132:26 *144:34 0
66 *132:26 *144:38 0
67 *132:26 *144:70 0
68 *134:47 *693:C1 0
69 *139:20 *664:B1 0
70 *139:20 *144:11 0
71 *139:22 *144:11 0
72 *140:38 *144:11 0
73 *141:55 *144:17 0
74 *142:15 *144:11 0
75 *142:29 *664:B1 0
76 *142:29 *144:11 0
*RES
1 *657:Y *144:11 37.2821 
2 *144:11 *144:17 17.2589 
3 *144:17 *702:C2 9.72857 
4 *144:17 *144:34 9.90179 
5 *144:34 *144:38 9.17857 
6 *144:38 *144:39 1.35714 
7 *144:39 *144:41 3.15179 
8 *144:41 *674:B1 9.91607 
9 *144:41 *720:B1 22.2955 
10 *144:39 *144:70 13.7321 
11 *144:70 *713:B1 16.5277 
12 *144:70 *693:C1 25.8893 
13 *144:38 *681:B1 13.2732 
14 *144:34 *689:C1 13.8 
15 *144:11 *664:B1 26.8357 
*END

*D_NET *145 0.00793438
*CONN
*I *673:B1 I *D sky130_fd_sc_hd__a222oi_1
*I *685:A2 I *D sky130_fd_sc_hd__a22oi_1
*I *712:B1 I *D sky130_fd_sc_hd__a222oi_1
*I *704:B1 I *D sky130_fd_sc_hd__a222oi_1
*I *694:A2 I *D sky130_fd_sc_hd__a22oi_1
*I *679:A2 I *D sky130_fd_sc_hd__a22oi_1
*I *667:A2 I *D sky130_fd_sc_hd__a222oi_1
*I *721:B1 I *D sky130_fd_sc_hd__a222oi_1
*I *658:Y O *D sky130_fd_sc_hd__nor3_1
*CAP
1 *673:B1 0.000532279
2 *685:A2 7.05891e-06
3 *712:B1 0.000105884
4 *704:B1 0.000491892
5 *694:A2 2.2888e-05
6 *679:A2 0.000236496
7 *667:A2 4.27813e-06
8 *721:B1 0.000194227
9 *658:Y 0.00054295
10 *145:69 0.000639248
11 *145:54 0.000569439
12 *145:38 0.000714149
13 *145:31 0.000799882
14 *145:27 0.000409132
15 *145:21 0.00133458
16 *145:8 0.00133
17 *667:A2 *667:B1 0
18 *667:A2 *667:B2 0
19 *673:B1 *673:A1 0
20 *673:B1 *673:C1 0
21 *673:B1 *690:D 0
22 *673:B1 *147:25 0
23 *673:B1 *158:20 0
24 *673:B1 *512:31 0
25 *679:A2 *680:B 0
26 *679:A2 *719:B 0
27 *679:A2 *723:A1 0
28 *679:A2 *517:46 0
29 *694:A2 *694:B1 0
30 *704:B1 *694:A1 0
31 *704:B1 *695:B 0
32 *704:B1 *707:B 0
33 *704:B1 *723:A1 0
34 *704:B1 *469:14 0
35 *704:B1 *517:32 0
36 *704:B1 *517:46 0
37 *712:B1 *712:C2 0
38 *721:B1 *722:A 0
39 *721:B1 *567:87 0
40 *145:8 *709:A1 0
41 *145:8 *1504:A 0
42 *145:8 *513:53 0
43 *145:21 uo_out[2] 0
44 *145:21 *684:A1 0
45 *145:21 *684:A2 0
46 *145:21 *684:B1 0
47 *145:21 *742:A 0
48 *145:21 *203:560 0
49 *145:21 *516:38 0
50 *145:27 *684:A1 0
51 *145:27 *707:A 0
52 *145:27 *707:C 0
53 *145:27 *707:D 0
54 *145:27 *714:A 0
55 *145:27 *203:560 0
56 *145:31 *707:C 0
57 *145:31 *714:A 0
58 *145:31 *714:B 0
59 *145:31 *714:D 0
60 *145:38 *712:C1 0
61 *145:38 *714:C 0
62 *145:38 *983:B 0
63 *145:38 *985:A 0
64 *145:38 *456:66 0
65 *145:54 *688:C1 0
66 *145:54 *723:A1 0
67 *145:54 *985:A 0
68 *145:54 *985:B 0
69 *145:54 *149:22 0
70 *145:54 *456:66 0
71 *145:69 *694:A1 0
72 *145:69 *723:A1 0
73 *667:C2 *145:38 0
74 *704:A2 *704:B1 0
75 *134:101 *145:31 0
76 *140:38 *145:8 0
77 *141:24 *145:8 0
78 *142:15 *145:8 0
*RES
1 *658:Y *145:8 25.6571 
2 *145:8 *721:B1 17.8536 
3 *145:8 *145:21 13.5625 
4 *145:21 *145:27 4.88393 
5 *145:27 *145:31 8.875 
6 *145:31 *145:38 10.6339 
7 *145:38 *667:A2 9.45625 
8 *145:38 *145:54 13.6696 
9 *145:54 *679:A2 23.3937 
10 *145:54 *145:69 7.35714 
11 *145:69 *694:A2 14.2777 
12 *145:69 *704:B1 24.5411 
13 *145:31 *712:B1 11.6482 
14 *145:27 *685:A2 13.9473 
15 *145:21 *673:B1 24.3724 
*END

*D_NET *146 0.00699244
*CONN
*I *717:C1 I *D sky130_fd_sc_hd__a222oi_1
*I *692:B I *D sky130_fd_sc_hd__nand2_1
*I *681:C1 I *D sky130_fd_sc_hd__a222oi_1
*I *666:A2 I *D sky130_fd_sc_hd__a222oi_1
*I *673:C2 I *D sky130_fd_sc_hd__a222oi_1
*I *685:B1 I *D sky130_fd_sc_hd__a22oi_1
*I *706:A2 I *D sky130_fd_sc_hd__a22oi_1
*I *712:C2 I *D sky130_fd_sc_hd__a222oi_1
*I *659:Y O *D sky130_fd_sc_hd__nor3_1
*CAP
1 *717:C1 0
2 *692:B 0
3 *681:C1 0.00016413
4 *666:A2 0.000116596
5 *673:C2 0.000179898
6 *685:B1 0.000300539
7 *706:A2 5.27814e-05
8 *712:C2 0.000272853
9 *659:Y 0.00137365
10 *146:99 0.000496989
11 *146:80 0.000511702
12 *146:72 0.000398294
13 *146:58 0.000618834
14 *146:49 0.000403428
15 *146:21 0.00052737
16 *146:16 0.00157538
17 *666:A2 *666:A1 0
18 *666:A2 *668:B 0
19 *666:A2 *534:20 0
20 *673:C2 *673:C1 0
21 *673:C2 *698:A 0
22 *673:C2 *176:17 0
23 *681:C1 *683:A 0
24 *681:C1 *503:29 0
25 *685:B1 *176:17 0
26 *685:B1 *197:13 0
27 *146:16 *663:B1 0
28 *146:16 *663:C1 0
29 *146:16 *673:C1 0
30 *146:16 *676:A2 0
31 *146:16 *698:A 0
32 *146:16 *698:B 0
33 *146:16 *698:C 0
34 *146:16 *720:C1 0
35 *146:16 *743:B 0
36 *146:16 *203:71 0
37 *146:16 *203:80 0
38 *146:16 *218:10 0
39 *146:16 *227:20 0
40 *146:16 *246:12 0
41 *146:16 *246:31 0
42 *146:16 *498:25 0
43 *146:16 *567:132 0
44 *146:21 *218:10 0
45 *146:21 *227:20 0
46 *146:58 *197:13 0
47 *146:72 *717:B1 0
48 *146:72 *197:13 0
49 *146:80 *717:B1 0
50 *146:80 *717:C2 0
51 *146:99 *669:A2 0
52 *146:99 *674:B2 0
53 *146:99 *717:A1 0
54 *146:99 *717:B2 0
55 *146:99 *720:B2 0
56 *146:99 *245:15 0
57 *650:B *146:16 0
58 *681:B1 *681:C1 0
59 *696:A2 *146:16 0
60 *712:B1 *712:C2 0
61 *132:12 *146:16 0
62 *132:26 *681:C1 0
63 *134:30 *673:C2 0
64 *137:10 *146:16 0
65 *139:43 *146:16 0
*RES
1 *659:Y *146:16 46.2652 
2 *146:16 *146:21 9.10714 
3 *146:21 *712:C2 24.1482 
4 *146:21 *706:A2 10.5634 
5 *146:16 *146:49 4.5 
6 *146:49 *685:B1 15.6036 
7 *146:49 *146:58 2.17857 
8 *146:58 *673:C2 22.3625 
9 *146:58 *146:72 7.10714 
10 *146:72 *146:80 5.89286 
11 *146:80 *666:A2 16.4429 
12 *146:80 *146:99 11.7857 
13 *146:99 *681:C1 21.9071 
14 *146:99 *692:B 9.3 
15 *146:72 *717:C1 9.3 
*END

*D_NET *147 0.00864493
*CONN
*I *696:B1 I *D sky130_fd_sc_hd__a222oi_1
*I *688:B1 I *D sky130_fd_sc_hd__a222oi_1
*I *706:B1 I *D sky130_fd_sc_hd__a22oi_1
*I *711:A2 I *D sky130_fd_sc_hd__a22oi_1
*I *678:B1 I *D sky130_fd_sc_hd__a222oi_1
*I *674:C1 I *D sky130_fd_sc_hd__a222oi_1
*I *717:B1 I *D sky130_fd_sc_hd__a222oi_1
*I *666:B1 I *D sky130_fd_sc_hd__a222oi_1
*I *660:Y O *D sky130_fd_sc_hd__nor3_1
*CAP
1 *696:B1 5.13376e-05
2 *688:B1 9.88248e-05
3 *706:B1 0.000533896
4 *711:A2 0
5 *678:B1 0.000385139
6 *674:C1 0
7 *717:B1 0.000235725
8 *666:B1 0.000193735
9 *660:Y 0.000565108
10 *147:79 0.000773295
11 *147:70 0.000808568
12 *147:57 0.00129142
13 *147:28 0.00063551
14 *147:25 0.00077935
15 *147:14 0.00134291
16 *147:10 0.00095011
17 *666:B1 *666:A1 0
18 *666:B1 *668:B 0
19 *666:B1 *534:20 0
20 *678:B1 *678:A1 0
21 *678:B1 *723:A1 0
22 *678:B1 *723:B1 0
23 *678:B1 *148:21 0
24 *688:B1 *688:A1 0
25 *688:B1 *688:C1 0
26 *688:B1 *690:C 0
27 *688:B1 *195:10 0
28 *696:B1 *676:A1 0
29 *696:B1 *498:25 0
30 *706:B1 *693:C2 0
31 *706:B1 *706:A1 0
32 *706:B1 *706:B2 0
33 *706:B1 *711:A1 0
34 *706:B1 *714:B 0
35 *717:B1 *717:A1 0
36 *717:B1 *717:C2 0
37 *147:10 *658:B 0
38 *147:10 *660:A 0
39 *147:10 *696:C1 0
40 *147:10 *148:62 0
41 *147:10 *498:25 0
42 *147:14 *696:B2 0
43 *147:14 *246:12 0
44 *147:25 *674:C2 0
45 *147:25 *675:C 0
46 *147:25 *675:D 0
47 *147:25 *696:B2 0
48 *147:25 *699:A2 0
49 *147:25 *158:20 0
50 *147:25 *246:12 0
51 *147:25 *512:14 0
52 *147:28 *534:20 0
53 *147:57 *699:A1 0
54 *147:57 *699:A2 0
55 *147:57 *699:B1 0
56 *147:57 *722:B 0
57 *147:70 *690:C 0
58 *147:70 *149:15 0
59 *147:70 *195:10 0
60 *147:70 *512:31 0
61 *147:79 *688:A1 0
62 *147:79 *714:B 0
63 *147:79 *149:22 0
64 *660:C *147:10 0
65 *666:C2 *666:B1 0
66 *667:C2 *147:79 0
67 *673:B1 *147:25 0
68 *678:A2 *678:B1 0
69 *696:A2 *147:10 0
70 *696:A2 *147:14 0
71 *139:45 *147:28 0
72 *139:49 *666:B1 0
73 *139:49 *147:28 0
74 *144:11 *147:10 0
75 *146:72 *717:B1 0
76 *146:80 *717:B1 0
*RES
1 *660:Y *147:10 26.3714 
2 *147:10 *147:14 7.64286 
3 *147:14 *147:25 18.8932 
4 *147:25 *147:28 9.17857 
5 *147:28 *666:B1 18.0634 
6 *147:28 *717:B1 18.7196 
7 *147:25 *674:C1 9.3 
8 *147:14 *147:57 13.6607 
9 *147:57 *678:B1 17.3848 
10 *147:57 *147:70 15.25 
11 *147:70 *147:79 9.98661 
12 *147:79 *711:A2 9.3 
13 *147:79 *706:B1 29.6884 
14 *147:70 *688:B1 15.8625 
15 *147:10 *696:B1 14.9339 
*END

*D_NET *148 0.00750968
*CONN
*I *663:B1 I *D sky130_fd_sc_hd__a222oi_1
*I *720:C1 I *D sky130_fd_sc_hd__a222oi_1
*I *696:C1 I *D sky130_fd_sc_hd__a222oi_1
*I *687:B1 I *D sky130_fd_sc_hd__a22oi_1
*I *710:B1 I *D sky130_fd_sc_hd__a22o_1
*I *671:B1 I *D sky130_fd_sc_hd__a22o_1
*I *678:C1 I *D sky130_fd_sc_hd__a222oi_1
*I *704:C2 I *D sky130_fd_sc_hd__a222oi_1
*I *661:Y O *D sky130_fd_sc_hd__nor2_1
*CAP
1 *663:B1 0.000252794
2 *720:C1 0.00042143
3 *696:C1 8.57119e-05
4 *687:B1 0
5 *710:B1 6.50276e-05
6 *671:B1 6.50276e-05
7 *678:C1 0
8 *704:C2 0.000267964
9 *661:Y 0
10 *148:74 0.00111166
11 *148:62 0.0011074
12 *148:21 0.000833343
13 *148:14 0.000780182
14 *148:12 0.000777939
15 *148:7 0.000860039
16 *148:4 0.000881156
17 *663:B1 *665:A 0
18 *663:B1 *682:A1 0
19 *671:B1 *671:A1 0
20 *671:B1 *671:B2 0
21 *696:C1 *1504:A 0
22 *704:C2 *678:A1 0
23 *704:C2 *704:C1 0
24 *704:C2 *463:10 0
25 *710:B1 *710:B2 0
26 *720:C1 *675:A 0
27 *720:C1 *697:A1 0
28 *720:C1 *722:B 0
29 *720:C1 *534:20 0
30 *148:7 *690:B 0
31 *148:12 *671:B2 0
32 *148:12 *710:B2 0
33 *148:12 *541:6 0
34 *148:14 *671:B2 0
35 *148:14 *710:A1 0
36 *148:14 *710:B2 0
37 *148:21 *678:A1 0
38 *148:21 *872:A 0
39 *148:21 *873:B 0
40 *148:62 *1504:A 0
41 *678:A2 *148:14 0
42 *678:B1 *148:21 0
43 *687:A2 *148:7 0
44 *704:A2 *148:21 0
45 *716:B *148:74 0
46 *134:30 *148:74 0
47 *137:10 *720:C1 0
48 *139:43 *663:B1 0
49 *139:43 *720:C1 0
50 *139:45 *720:C1 0
51 *144:11 *148:62 0
52 *146:16 *663:B1 0
53 *146:16 *720:C1 0
54 *147:10 *696:C1 0
55 *147:10 *148:62 0
*RES
1 *661:Y *148:4 9.3 
2 *148:4 *148:7 6.19643 
3 *148:7 *148:12 16.6964 
4 *148:12 *148:14 3.46429 
5 *148:14 *148:21 17.2321 
6 *148:21 *704:C2 24.1304 
7 *148:21 *678:C1 9.3 
8 *148:14 *671:B1 15.1571 
9 *148:12 *710:B1 15.1571 
10 *148:7 *687:B1 9.3 
11 *148:4 *148:62 17.6429 
12 *148:62 *696:C1 15.7464 
13 *148:62 *148:74 18.1607 
14 *148:74 *720:C1 23.2643 
15 *148:74 *663:B1 19.2955 
*END

*D_NET *149 0.00779358
*CONN
*I *694:B1 I *D sky130_fd_sc_hd__a22oi_1
*I *688:C2 I *D sky130_fd_sc_hd__a222oi_1
*I *711:B1 I *D sky130_fd_sc_hd__a22oi_1
*I *705:B1 I *D sky130_fd_sc_hd__a22oi_1
*I *672:B1 I *D sky130_fd_sc_hd__a22oi_1
*I *667:B1 I *D sky130_fd_sc_hd__a222oi_1
*I *718:B1 I *D sky130_fd_sc_hd__a22oi_1
*I *679:B1 I *D sky130_fd_sc_hd__a22oi_1
*I *662:Y O *D sky130_fd_sc_hd__nor2_1
*CAP
1 *694:B1 0.000276581
2 *688:C2 1.24066e-05
3 *711:B1 0
4 *705:B1 0
5 *672:B1 0.000456091
6 *667:B1 0.000141215
7 *718:B1 0
8 *679:B1 9.79507e-05
9 *662:Y 0.00141116
10 *149:70 0.0011856
11 *149:61 0.000830899
12 *149:25 0.000340093
13 *149:23 0.000524108
14 *149:22 0.000446777
15 *149:18 0.000300001
16 *149:15 0.0017707
17 *667:B1 *667:B2 0
18 *667:B1 *688:C1 0
19 *667:B1 *694:A1 0
20 *672:B1 *707:C 0
21 *672:B1 *730:A 0
22 *672:B1 *522:14 0
23 *679:B1 *679:A1 0
24 *679:B1 *679:B2 0
25 *694:B1 *695:B 0
26 *694:B1 *197:13 0
27 *149:15 uo_out[3] 0
28 *149:15 *690:B 0
29 *149:15 *721:C2 0
30 *149:15 *722:C 0
31 *149:15 *1010:A 0
32 *149:15 *1011:A 0
33 *149:15 *195:10 0
34 *149:15 *197:13 0
35 *149:15 *512:31 0
36 *149:15 *513:30 0
37 *149:15 *567:87 0
38 *149:18 *735:B 0
39 *149:18 *456:66 0
40 *149:22 *688:C1 0
41 *149:22 *985:A 0
42 *149:22 *195:10 0
43 *149:61 *714:B 0
44 *149:70 *688:A1 0
45 *149:70 *707:C 0
46 *149:70 *711:B2 0
47 *149:70 *714:B 0
48 *149:70 *468:55 0
49 *661:B *149:15 0
50 *662:B *149:15 0
51 *667:A2 *667:B1 0
52 *667:C2 *667:B1 0
53 *667:C2 *149:22 0
54 *672:A2 *672:B1 0
55 *694:A2 *694:B1 0
56 *718:A2 *149:25 0
57 *721:C1 *149:15 0
58 *97:10 *672:B1 0
59 *97:10 *149:70 0
60 *145:54 *149:22 0
61 *147:70 *149:15 0
62 *147:79 *149:22 0
*RES
1 *662:Y *149:15 49.8893 
2 *149:15 *149:18 6.44643 
3 *149:18 *149:22 9.17857 
4 *149:22 *149:23 3 
5 *149:23 *149:25 5.05357 
6 *149:25 *679:B1 20.4786 
7 *149:25 *718:B1 9.3 
8 *149:23 *667:B1 21.5187 
9 *149:22 *149:61 2.17857 
10 *149:61 *149:70 29.6429 
11 *149:70 *672:B1 23.7464 
12 *149:70 *705:B1 13.8 
13 *149:61 *711:B1 9.3 
14 *149:18 *688:C2 14.0589 
15 *149:15 *694:B1 15.1036 
*END

*D_NET *150 0.000458875
*CONN
*I *665:A I *D sky130_fd_sc_hd__nand2_1
*I *663:Y O *D sky130_fd_sc_hd__a222oi_1
*CAP
1 *665:A 0.000229437
2 *663:Y 0.000229437
3 *665:A *682:A1 0
4 *665:A *703:B 0
5 *663:B1 *665:A 0
6 *144:17 *665:A 0
*RES
1 *663:Y *665:A 32.5464 
*END

*D_NET *151 0.000763121
*CONN
*I *665:B I *D sky130_fd_sc_hd__nand2_1
*I *664:Y O *D sky130_fd_sc_hd__a22oi_1
*CAP
1 *665:B 0.000381561
2 *664:Y 0.000381561
3 *665:B *663:A1 0
4 *665:B *664:B2 0
5 *665:B *669:A1 0
6 *665:B *675:A 0
7 *665:B *683:C 0
8 *670:B1 *665:B 0
9 *682:A2 *665:B 0
10 *141:64 *665:B 0
11 *141:77 *665:B 0
*RES
1 *664:Y *665:B 35.6714 
*END

*D_NET *152 0.000274776
*CONN
*I *669:A1 I *D sky130_fd_sc_hd__o21a_1
*I *665:Y O *D sky130_fd_sc_hd__nand2_1
*CAP
1 *669:A1 0.000137388
2 *665:Y 0.000137388
3 *669:A1 *533:20 0
4 *665:B *669:A1 0
5 *132:21 *669:A1 0
*RES
1 *665:Y *669:A1 30.6 
*END

*D_NET *153 0.000487707
*CONN
*I *668:B I *D sky130_fd_sc_hd__nand3_1
*I *666:Y O *D sky130_fd_sc_hd__a222oi_1
*CAP
1 *668:B 0.000243853
2 *666:Y 0.000243853
3 *668:B *666:A1 0
4 *668:B *666:C1 0
5 *666:A2 *668:B 0
6 *666:B1 *668:B 0
7 *666:C2 *668:B 0
*RES
1 *666:Y *668:B 23.6893 
*END

*D_NET *154 0.00284764
*CONN
*I *668:C I *D sky130_fd_sc_hd__nand3_1
*I *667:Y O *D sky130_fd_sc_hd__a222oi_1
*CAP
1 *668:C 0.00142382
2 *667:Y 0.00142382
3 *668:C *666:A1 0
4 *668:C *712:C1 0
5 *668:C *714:D 0
6 *668:C *717:B2 0
7 *668:C *227:20 0
8 *668:C *469:14 0
9 *668:C *506:47 0
10 *668:C *507:11 0
11 *693:A2 *668:C 0
12 *718:A2 *668:C 0
*RES
1 *667:Y *668:C 41.8299 
*END

*D_NET *155 0.00137468
*CONN
*I *669:A2 I *D sky130_fd_sc_hd__o21a_1
*I *668:Y O *D sky130_fd_sc_hd__nand3_1
*CAP
1 *669:A2 0.000687341
2 *668:Y 0.000687341
3 *669:A2 *675:A 0
4 *669:A2 *690:D 0
5 *669:A2 *702:A1 0
6 *669:A2 *702:C1 0
7 *669:A2 *717:A1 0
8 *669:A2 *717:B2 0
9 *669:A2 *737:A 0
10 *674:A2 *669:A2 0
11 *132:21 *669:A2 0
12 *132:26 *669:A2 0
13 *137:22 *669:A2 0
14 *144:70 *669:A2 0
15 *146:99 *669:A2 0
*RES
1 *668:Y *669:A2 42.9571 
*END

*D_NET *156 0.00171921
*CONN
*I *675:A I *D sky130_fd_sc_hd__nand4_1
*I *670:Y O *D sky130_fd_sc_hd__a22oi_1
*CAP
1 *675:A 0.000859603
2 *670:Y 0.000859603
3 *675:A *663:A1 0
4 *675:A *675:D 0
5 *675:A *683:C 0
6 *675:A *690:D 0
7 *675:A *702:C1 0
8 *675:A *703:B 0
9 *675:A *720:A1 0
10 *675:A *722:B 0
11 *665:B *675:A 0
12 *669:A2 *675:A 0
13 *720:B1 *675:A 0
14 *720:C1 *675:A 0
15 *132:26 *675:A 0
16 *137:41 *675:A 0
17 *144:17 *675:A 0
*RES
1 *670:Y *675:A 46.1893 
*END

*D_NET *157 0.00212466
*CONN
*I *676:A1 I *D sky130_fd_sc_hd__o21a_1
*I *671:X O *D sky130_fd_sc_hd__a22o_1
*CAP
1 *676:A1 0.00106233
2 *671:X 0.00106233
3 *676:A1 *669:B1 0
4 *676:A1 *686:B2 0
5 *676:A1 *691:A2 0
6 *676:A1 *698:B 0
7 *676:A1 *741:B 0
8 *676:A1 *1011:A 0
9 *676:A1 *498:25 0
10 *676:A1 *567:93 0
11 *676:A1 *567:119 0
12 *678:A2 *676:A1 0
13 *696:B1 *676:A1 0
*RES
1 *671:X *676:A1 49.9929 
*END

*D_NET *158 0.00391239
*CONN
*I *675:B I *D sky130_fd_sc_hd__nand4_1
*I *672:Y O *D sky130_fd_sc_hd__a22oi_1
*CAP
1 *675:B 0
2 *672:Y 0.00195619
3 *158:20 0.00195619
4 *158:20 *673:C1 0
5 *158:20 *675:C 0
6 *158:20 *684:A2 0
7 *158:20 *705:B2 0
8 *158:20 *714:A 0
9 *158:20 *768:A 0
10 *158:20 *522:14 0
11 *673:B1 *158:20 0
12 *1159:D *158:20 0
13 *134:30 *158:20 0
14 *147:25 *158:20 0
*RES
1 *672:Y *158:20 41.09 
2 *158:20 *675:B 9.3 
*END

*D_NET *159 0.00048967
*CONN
*I *675:C I *D sky130_fd_sc_hd__nand4_1
*I *673:Y O *D sky130_fd_sc_hd__a222oi_1
*CAP
1 *675:C 0.000244835
2 *673:Y 0.000244835
3 *675:C *675:D 0
4 *675:C *676:A2 0
5 *675:C *698:A 0
6 *675:C *722:B 0
7 *675:C *512:14 0
8 *134:30 *675:C 0
9 *147:25 *675:C 0
10 *158:20 *675:C 0
*RES
1 *673:Y *675:C 33.1179 
*END

*D_NET *160 0.00062821
*CONN
*I *675:D I *D sky130_fd_sc_hd__nand4_1
*I *674:Y O *D sky130_fd_sc_hd__a222oi_1
*CAP
1 *675:D 0.000314105
2 *674:Y 0.000314105
3 *675:D *676:A2 0
4 *675:D *722:B 0
5 *675:A *675:D 0
6 *675:C *675:D 0
7 *134:30 *675:D 0
8 *147:25 *675:D 0
*RES
1 *674:Y *675:D 34.3143 
*END

*D_NET *161 0.000775369
*CONN
*I *676:A2 I *D sky130_fd_sc_hd__o21a_1
*I *675:Y O *D sky130_fd_sc_hd__nand4_1
*CAP
1 *676:A2 0.000387685
2 *675:Y 0.000387685
3 *676:A2 *676:B1 0
4 *676:A2 *698:A 0
5 *676:A2 *698:C 0
6 *676:A2 *567:132 0
7 *675:C *676:A2 0
8 *675:D *676:A2 0
9 *134:30 *676:A2 0
10 *146:16 *676:A2 0
*RES
1 *675:Y *676:A2 36.2607 
*END

*D_NET *162 0.0012733
*CONN
*I *683:A I *D sky130_fd_sc_hd__nand3_1
*I *677:Y O *D sky130_fd_sc_hd__nand2_1
*CAP
1 *683:A 0.00063665
2 *677:Y 0.00063665
3 *683:A *677:A 0
4 *683:A *683:B 0
5 *683:A *702:C1 0
6 *683:A *720:A1 0
7 *683:A *241:8 0
8 *681:C1 *683:A 0
9 *713:A2 *683:A 0
10 *713:B1 *683:A 0
11 *132:26 *683:A 0
12 *144:38 *683:A 0
*RES
1 *677:Y *683:A 41.975 
*END

*D_NET *163 0.000527953
*CONN
*I *680:A I *D sky130_fd_sc_hd__nand2_1
*I *678:Y O *D sky130_fd_sc_hd__a222oi_1
*CAP
1 *680:A 0.000263976
2 *678:Y 0.000263976
3 *680:A *678:A1 0
4 *680:A *678:B2 0
5 *680:A *469:14 0
6 *680:A *517:46 0
*RES
1 *678:Y *680:A 33.4393 
*END

*D_NET *164 0.000782677
*CONN
*I *680:B I *D sky130_fd_sc_hd__nand2_1
*I *679:Y O *D sky130_fd_sc_hd__a22oi_1
*CAP
1 *680:B 0.000391338
2 *679:Y 0.000391338
3 *680:B *719:B 0
4 *680:B *984:B 0
5 *680:B *456:66 0
6 *680:B *517:46 0
7 *679:A2 *680:B 0
*RES
1 *679:Y *680:B 36.3679 
*END

*D_NET *165 0.00238826
*CONN
*I *684:A1 I *D sky130_fd_sc_hd__o21a_1
*I *680:Y O *D sky130_fd_sc_hd__nand2_1
*CAP
1 *684:A1 0.00119413
2 *680:Y 0.00119413
3 *684:A1 *673:B2 0
4 *684:A1 *684:A2 0
5 *684:A1 *685:A1 0
6 *684:A1 *685:B2 0
7 *684:A1 *707:A 0
8 *684:A1 *714:A 0
9 *684:A1 *743:D 0
10 *684:A1 *189:22 0
11 *684:A1 *218:10 0
12 *684:A1 *517:46 0
13 *684:A1 *535:31 0
14 *145:21 *684:A1 0
15 *145:27 *684:A1 0
*RES
1 *680:Y *684:A1 46.8662 
*END

*D_NET *166 0.000262159
*CONN
*I *683:B I *D sky130_fd_sc_hd__nand3_1
*I *681:Y O *D sky130_fd_sc_hd__a222oi_1
*CAP
1 *683:B 0.00013108
2 *681:Y 0.00013108
3 *681:B1 *683:B 0
4 *683:A *683:B 0
5 *144:38 *683:B 0
*RES
1 *681:Y *683:B 30.4929 
*END

*D_NET *167 0.000850246
*CONN
*I *683:C I *D sky130_fd_sc_hd__nand3_1
*I *682:Y O *D sky130_fd_sc_hd__a222oi_1
*CAP
1 *683:C 0.000425123
2 *682:Y 0.000425123
3 *683:C *663:A1 0
4 *683:C *670:B2 0
5 *683:C *703:B 0
6 *683:C *720:A1 0
7 *665:B *683:C 0
8 *670:B1 *683:C 0
9 *675:A *683:C 0
10 *132:26 *683:C 0
11 *141:79 *683:C 0
12 *144:34 *683:C 0
*RES
1 *682:Y *683:C 37.1714 
*END

*D_NET *168 0.00185338
*CONN
*I *684:A2 I *D sky130_fd_sc_hd__o21a_1
*I *683:Y O *D sky130_fd_sc_hd__nand3_1
*CAP
1 *684:A2 0.00092669
2 *683:Y 0.00092669
3 *684:A2 *689:C2 0
4 *684:A2 *690:D 0
5 *684:A2 *697:A1 0
6 *684:A2 *720:C2 0
7 *684:A2 *512:14 0
8 *684:A2 *531:19 0
9 *684:A1 *684:A2 0
10 *144:38 *684:A2 0
11 *145:21 *684:A2 0
12 *158:20 *684:A2 0
*RES
1 *683:Y *684:A2 40.0282 
*END

*D_NET *169 0.00104709
*CONN
*I *690:A I *D sky130_fd_sc_hd__nand4_1
*I *685:Y O *D sky130_fd_sc_hd__a22oi_1
*CAP
1 *690:A 0.000523547
2 *685:Y 0.000523547
3 *690:A *674:C2 0
4 *690:A *690:B 0
5 *690:A *699:A1 0
6 *690:A *722:B 0
7 *690:A *723:A2 0
8 *690:A *176:17 0
9 *690:A *189:22 0
10 *690:A *203:560 0
*RES
1 *685:Y *690:A 39.3679 
*END

*D_NET *170 0.000842744
*CONN
*I *691:A1 I *D sky130_fd_sc_hd__o21a_1
*I *686:X O *D sky130_fd_sc_hd__a22o_1
*CAP
1 *691:A1 0.000421372
2 *686:X 0.000421372
3 *691:A1 *690:B 0
4 *697:C1 *691:A1 0
5 *139:22 *691:A1 0
6 *141:24 *691:A1 0
*RES
1 *686:X *691:A1 36.725 
*END

*D_NET *171 0.001691
*CONN
*I *690:B I *D sky130_fd_sc_hd__nand4_1
*I *687:Y O *D sky130_fd_sc_hd__a22oi_1
*CAP
1 *690:B 0.000845499
2 *687:Y 0.000845499
3 *690:B *691:A2 0
4 *690:B *721:A1 0
5 *690:B *721:C2 0
6 *690:B *1010:A 0
7 *690:B *513:30 0
8 *690:B *567:87 0
9 *687:A2 *690:B 0
10 *690:A *690:B 0
11 *691:A1 *690:B 0
12 *141:24 *690:B 0
13 *142:10 *690:B 0
14 *148:7 *690:B 0
15 *149:15 *690:B 0
*RES
1 *687:Y *690:B 46.6893 
*END

*D_NET *172 0.00111553
*CONN
*I *690:C I *D sky130_fd_sc_hd__nand4_1
*I *688:Y O *D sky130_fd_sc_hd__a222oi_1
*CAP
1 *690:C 0.000557764
2 *688:Y 0.000557764
3 *690:C *688:A1 0
4 *690:C *699:A1 0
5 *690:C *176:17 0
6 *690:C *203:560 0
7 *688:B1 *690:C 0
8 *147:70 *690:C 0
*RES
1 *688:Y *690:C 40.1179 
*END

*D_NET *173 0.00238534
*CONN
*I *690:D I *D sky130_fd_sc_hd__nand4_1
*I *689:Y O *D sky130_fd_sc_hd__a222oi_1
*CAP
1 *690:D 0.00119267
2 *689:Y 0.00119267
3 *690:D uo_out[4] 0
4 *690:D *697:A1 0
5 *690:D *872:A 0
6 *690:D *512:31 0
7 *690:D *531:19 0
8 *669:A2 *690:D 0
9 *673:B1 *690:D 0
10 *675:A *690:D 0
11 *684:A2 *690:D 0
*RES
1 *689:Y *690:D 40.9115 
*END

*D_NET *174 0.000508433
*CONN
*I *691:A2 I *D sky130_fd_sc_hd__o21a_1
*I *690:Y O *D sky130_fd_sc_hd__nand4_1
*CAP
1 *691:A2 0.000254217
2 *690:Y 0.000254217
3 *691:A2 *722:C 0
4 *691:A2 *567:119 0
5 *676:A1 *691:A2 0
6 *690:B *691:A2 0
*RES
1 *690:Y *691:A2 33.225 
*END

*D_NET *175 0.00200241
*CONN
*I *698:A I *D sky130_fd_sc_hd__nand3_1
*I *692:Y O *D sky130_fd_sc_hd__nand2_1
*CAP
1 *698:A 0.00100121
2 *692:Y 0.00100121
3 *698:A *673:C1 0
4 *698:A *743:B 0
5 *698:A *245:15 0
6 *673:C2 *698:A 0
7 *675:C *698:A 0
8 *676:A2 *698:A 0
9 *713:A2 *698:A 0
10 *146:16 *698:A 0
*RES
1 *692:Y *698:A 49.2607 
*END

*D_NET *176 0.0019741
*CONN
*I *695:A I *D sky130_fd_sc_hd__nand2_1
*I *693:Y O *D sky130_fd_sc_hd__a222oi_1
*CAP
1 *695:A 0
2 *693:Y 0.000987048
3 *176:17 0.000987048
4 *176:17 *699:A1 0
5 *176:17 *707:D 0
6 *176:17 *735:B 0
7 *176:17 *736:C 0
8 *176:17 *743:A 0
9 *176:17 *197:13 0
10 *176:17 *203:560 0
11 *176:17 *227:20 0
12 *673:C2 *176:17 0
13 *685:B1 *176:17 0
14 *690:A *176:17 0
15 *690:C *176:17 0
16 *134:30 *176:17 0
17 *134:34 *176:17 0
*RES
1 *693:Y *176:17 48.4607 
2 *176:17 *695:A 9.3 
*END

*D_NET *177 0.000688004
*CONN
*I *695:B I *D sky130_fd_sc_hd__nand2_1
*I *694:Y O *D sky130_fd_sc_hd__a22oi_1
*CAP
1 *695:B 0.000344002
2 *694:Y 0.000344002
3 *695:B *736:B 0
4 *695:B *736:C 0
5 *695:B *469:14 0
6 *695:B *535:17 0
7 *694:B1 *695:B 0
8 *704:B1 *695:B 0
*RES
1 *694:Y *695:B 34.975 
*END

*D_NET *178 0.00106668
*CONN
*I *699:A1 I *D sky130_fd_sc_hd__o21a_1
*I *695:Y O *D sky130_fd_sc_hd__nand2_1
*CAP
1 *699:A1 0.000533339
2 *695:Y 0.000533339
3 *699:A1 *699:A2 0
4 *699:A1 *743:A 0
5 *690:A *699:A1 0
6 *690:C *699:A1 0
7 *147:57 *699:A1 0
8 *176:17 *699:A1 0
*RES
1 *695:Y *699:A1 39.1893 
*END

*D_NET *179 0.000527236
*CONN
*I *698:B I *D sky130_fd_sc_hd__nand3_1
*I *696:Y O *D sky130_fd_sc_hd__a222oi_1
*CAP
1 *698:B 0.000263618
2 *696:Y 0.000263618
3 *698:B *698:C 0
4 *698:B *246:12 0
5 *676:A1 *698:B 0
6 *146:16 *698:B 0
*RES
1 *696:Y *698:B 33.4571 
*END

*D_NET *180 0.000655031
*CONN
*I *698:C I *D sky130_fd_sc_hd__nand3_1
*I *697:Y O *D sky130_fd_sc_hd__a222oi_1
*CAP
1 *698:C 0.000327515
2 *697:Y 0.000327515
3 *698:C *697:B2 0
4 *698:C *699:A2 0
5 *698:C *743:B 0
6 *676:A2 *698:C 0
7 *698:B *698:C 0
8 *146:16 *698:C 0
*RES
1 *697:Y *698:C 34.6179 
*END

*D_NET *181 0.000882564
*CONN
*I *699:A2 I *D sky130_fd_sc_hd__o21a_1
*I *698:Y O *D sky130_fd_sc_hd__nand3_1
*CAP
1 *699:A2 0.000441282
2 *698:Y 0.000441282
3 *699:A2 *722:B 0
4 *699:A2 *246:12 0
5 *698:C *699:A2 0
6 *699:A1 *699:A2 0
7 *147:25 *699:A2 0
8 *147:57 *699:A2 0
*RES
1 *698:Y *699:A2 36.8857 
*END

*D_NET *182 0.00246333
*CONN
*I *707:A I *D sky130_fd_sc_hd__nand4_1
*I *700:Y O *D sky130_fd_sc_hd__nand2_1
*CAP
1 *707:A 0.00123166
2 *700:Y 0.00123166
3 *707:A *673:B2 0
4 *707:A *673:C1 0
5 *707:A *674:B2 0
6 *707:A *685:B2 0
7 *707:A *714:A 0
8 *707:A *720:B2 0
9 *707:A *768:A 0
10 *707:A *496:11 0
11 *707:A *512:14 0
12 *684:A1 *707:A 0
13 *145:27 *707:A 0
*RES
1 *700:Y *707:A 40.8777 
*END

*D_NET *183 0.000767281
*CONN
*I *703:A I *D sky130_fd_sc_hd__nand2_1
*I *701:Y O *D sky130_fd_sc_hd__nand2_1
*CAP
1 *703:A 0.000383641
2 *701:Y 0.000383641
3 *703:A *751:B 0
4 *703:A *751:C 0
5 *703:A *614:30 0
*RES
1 *701:Y *703:A 35.7786 
*END

*D_NET *184 0.00133101
*CONN
*I *703:B I *D sky130_fd_sc_hd__nand2_1
*I *702:Y O *D sky130_fd_sc_hd__a222oi_1
*CAP
1 *703:B 0.000665506
2 *702:Y 0.000665506
3 *703:B *652:A 0
4 *703:B *652:B 0
5 *703:B *663:A1 0
6 *703:B *682:C1 0
7 *703:B *571:11 0
8 *665:A *703:B 0
9 *675:A *703:B 0
10 *683:C *703:B 0
11 *135:9 *703:B 0
12 *141:55 *703:B 0
13 *144:17 *703:B 0
*RES
1 *702:Y *703:B 42.6357 
*END

*D_NET *185 0.00242108
*CONN
*I *708:A1 I *D sky130_fd_sc_hd__o21a_1
*I *703:Y O *D sky130_fd_sc_hd__nand2_1
*CAP
1 *708:A1 0.00121054
2 *703:Y 0.00121054
3 *708:A1 *626:B 0
4 *708:A1 *663:B2 0
5 *708:A1 *1504:A 0
6 *708:A1 *189:22 0
7 *708:A1 *203:71 0
8 *708:A1 *455:344 0
9 *708:A1 *455:358 0
10 *708:A1 *497:14 0
11 *708:A1 *569:11 0
12 *708:A1 *571:11 0
13 *701:B *708:A1 0
*RES
1 *703:Y *708:A1 47.1698 
*END

*D_NET *186 0.00164364
*CONN
*I *707:B I *D sky130_fd_sc_hd__nand4_1
*I *704:Y O *D sky130_fd_sc_hd__a222oi_1
*CAP
1 *707:B 0.000821818
2 *704:Y 0.000821818
3 *707:B *674:C2 0
4 *707:B *696:B2 0
5 *707:B *469:14 0
6 *704:B1 *707:B 0
*RES
1 *704:Y *707:B 44.7786 
*END

*D_NET *187 0.00190372
*CONN
*I *707:C I *D sky130_fd_sc_hd__nand4_1
*I *705:Y O *D sky130_fd_sc_hd__a22oi_1
*CAP
1 *707:C 0.000951861
2 *705:Y 0.000951861
3 *707:C *685:B2 0
4 *707:C *707:D 0
5 *707:C *711:A1 0
6 *707:C *714:B 0
7 *707:C *714:C 0
8 *707:C *983:A 0
9 *707:C *203:560 0
10 *707:C *203:578 0
11 *707:C *468:55 0
12 *707:C *509:11 0
13 *672:B1 *707:C 0
14 *145:27 *707:C 0
15 *145:31 *707:C 0
16 *149:70 *707:C 0
*RES
1 *705:Y *707:C 49.0107 
*END

*D_NET *188 0.0010152
*CONN
*I *707:D I *D sky130_fd_sc_hd__nand4_1
*I *706:Y O *D sky130_fd_sc_hd__a22oi_1
*CAP
1 *707:D 0.000507598
2 *706:Y 0.000507598
3 *707:D *714:A 0
4 *707:D *218:10 0
5 *707:C *707:D 0
6 *134:101 *707:D 0
7 *139:53 *707:D 0
8 *145:27 *707:D 0
9 *176:17 *707:D 0
*RES
1 *706:Y *707:D 47.7786 
*END

*D_NET *189 0.00373171
*CONN
*I *708:A2 I *D sky130_fd_sc_hd__o21a_1
*I *707:Y O *D sky130_fd_sc_hd__nand4_1
*CAP
1 *708:A2 0
2 *707:Y 0.00186585
3 *189:22 0.00186585
4 *189:22 uo_out[2] 0
5 *189:22 uo_out[4] 0
6 *189:22 *663:B2 0
7 *189:22 *709:B2 0
8 *189:22 *714:A 0
9 *189:22 *743:A 0
10 *189:22 *1504:A 0
11 *189:22 *455:344 0
12 *684:A1 *189:22 0
13 *690:A *189:22 0
14 *708:A1 *189:22 0
*RES
1 *707:Y *189:22 43.9849 
2 *189:22 *708:A2 9.3 
*END

*D_NET *190 0.00227561
*CONN
*I *714:A I *D sky130_fd_sc_hd__nand4_1
*I *709:Y O *D sky130_fd_sc_hd__a22oi_1
*CAP
1 *714:A 0.0011378
2 *709:Y 0.0011378
3 *714:A uo_out[2] 0
4 *714:A *721:C2 0
5 *714:A *768:A 0
6 *714:A *532:47 0
7 *684:A1 *714:A 0
8 *707:A *714:A 0
9 *707:D *714:A 0
10 *134:101 *714:A 0
11 *142:15 *714:A 0
12 *145:27 *714:A 0
13 *145:31 *714:A 0
14 *158:20 *714:A 0
15 *189:22 *714:A 0
*RES
1 *709:Y *714:A 49.2748 
*END

*D_NET *191 0.000809009
*CONN
*I *715:A1 I *D sky130_fd_sc_hd__o21a_1
*I *710:X O *D sky130_fd_sc_hd__a22o_1
*CAP
1 *715:A1 0.000404505
2 *710:X 0.000404505
3 *715:A1 *1011:A 0
4 *715:A1 *513:30 0
5 *710:A2 *715:A1 0
6 *721:C1 *715:A1 0
*RES
1 *710:X *715:A1 36.3143 
*END

*D_NET *192 0.00112096
*CONN
*I *714:B I *D sky130_fd_sc_hd__nand4_1
*I *711:Y O *D sky130_fd_sc_hd__a22oi_1
*CAP
1 *714:B 0.000560479
2 *711:Y 0.000560479
3 *714:B *711:A1 0
4 *714:B *714:C 0
5 *714:B *468:55 0
6 *706:B1 *714:B 0
7 *707:C *714:B 0
8 *145:31 *714:B 0
9 *147:79 *714:B 0
10 *149:61 *714:B 0
11 *149:70 *714:B 0
*RES
1 *711:Y *714:B 39.7786 
*END

*D_NET *193 0.000222761
*CONN
*I *714:C I *D sky130_fd_sc_hd__nand4_1
*I *712:Y O *D sky130_fd_sc_hd__a222oi_1
*CAP
1 *714:C 0.000111381
2 *712:Y 0.000111381
3 *707:C *714:C 0
4 *714:B *714:C 0
5 *145:38 *714:C 0
*RES
1 *712:Y *714:C 30.0821 
*END

*D_NET *194 0.00181094
*CONN
*I *714:D I *D sky130_fd_sc_hd__nand4_1
*I *713:Y O *D sky130_fd_sc_hd__a222oi_1
*CAP
1 *714:D 0.000905471
2 *713:Y 0.000905471
3 *714:D *666:A1 0
4 *714:D *685:B2 0
5 *714:D *717:B2 0
6 *714:D *227:20 0
7 *668:C *714:D 0
8 *134:74 *714:D 0
9 *145:31 *714:D 0
*RES
1 *713:Y *714:D 41.5958 
*END

*D_NET *195 0.00230232
*CONN
*I *715:A2 I *D sky130_fd_sc_hd__o21a_1
*I *714:Y O *D sky130_fd_sc_hd__nand4_1
*CAP
1 *715:A2 0
2 *714:Y 0.00115116
3 *195:10 0.00115116
4 *195:10 *722:C 0
5 *195:10 *723:A1 0
6 *195:10 *735:B 0
7 *195:10 *736:A 0
8 *195:10 *1011:A 0
9 *195:10 *567:93 0
10 *667:C2 *195:10 0
11 *688:B1 *195:10 0
12 *134:74 *195:10 0
13 *147:70 *195:10 0
14 *149:15 *195:10 0
15 *149:22 *195:10 0
*RES
1 *714:Y *195:10 43.8357 
2 *195:10 *715:A2 9.3 
*END

*D_NET *196 0.000925712
*CONN
*I *722:A I *D sky130_fd_sc_hd__nand3_1
*I *716:Y O *D sky130_fd_sc_hd__nand2_1
*CAP
1 *722:A 0.000462856
2 *716:Y 0.000462856
3 *722:A *722:C 0
4 *722:A *203:560 0
5 *722:A *239:22 0
6 *697:C1 *722:A 0
7 *716:B *722:A 0
8 *721:B1 *722:A 0
*RES
1 *716:Y *722:A 37.8143 
*END

*D_NET *197 0.00297748
*CONN
*I *719:A I *D sky130_fd_sc_hd__nand2_1
*I *717:Y O *D sky130_fd_sc_hd__a222oi_1
*CAP
1 *719:A 0
2 *717:Y 0.00148874
3 *197:13 0.00148874
4 *197:13 *723:A1 0
5 *197:13 *984:B 0
6 *197:13 *517:46 0
7 *685:B1 *197:13 0
8 *694:B1 *197:13 0
9 *146:58 *197:13 0
10 *146:72 *197:13 0
11 *149:15 *197:13 0
12 *176:17 *197:13 0
*RES
1 *717:Y *197:13 49.4786 
2 *197:13 *719:A 9.3 
*END

*D_NET *198 0.000673523
*CONN
*I *719:B I *D sky130_fd_sc_hd__nand2_1
*I *718:Y O *D sky130_fd_sc_hd__a22oi_1
*CAP
1 *719:B 0.000336762
2 *718:Y 0.000336762
3 *719:B *679:B2 0
4 *679:A2 *719:B 0
5 *680:B *719:B 0
6 *1154:D *719:B 0
*RES
1 *718:Y *719:B 35.0821 
*END

*D_NET *199 0.00151351
*CONN
*I *723:A1 I *D sky130_fd_sc_hd__o21a_1
*I *719:Y O *D sky130_fd_sc_hd__nand2_1
*CAP
1 *723:A1 0.000756755
2 *719:Y 0.000756755
3 *723:A1 *696:B2 0
4 *723:A1 *723:B1 0
5 *723:A1 *736:A 0
6 *723:A1 *984:B 0
7 *723:A1 *985:B 0
8 *723:A1 *456:66 0
9 *723:A1 *469:14 0
10 *678:B1 *723:A1 0
11 *679:A2 *723:A1 0
12 *704:A2 *723:A1 0
13 *704:B1 *723:A1 0
14 *1154:D *723:A1 0
15 *145:54 *723:A1 0
16 *145:69 *723:A1 0
17 *195:10 *723:A1 0
18 *197:13 *723:A1 0
*RES
1 *719:Y *723:A1 44.1536 
*END

*D_NET *200 0.00154783
*CONN
*I *722:B I *D sky130_fd_sc_hd__nand3_1
*I *720:Y O *D sky130_fd_sc_hd__a222oi_1
*CAP
1 *722:B 0.000773915
2 *720:Y 0.000773915
3 *722:B *742:C 0
4 *722:B *203:560 0
5 *675:A *722:B 0
6 *675:C *722:B 0
7 *675:D *722:B 0
8 *690:A *722:B 0
9 *699:A2 *722:B 0
10 *720:C1 *722:B 0
11 *147:57 *722:B 0
*RES
1 *720:Y *722:B 43.8857 
*END

*D_NET *201 0.000857966
*CONN
*I *722:C I *D sky130_fd_sc_hd__nand3_1
*I *721:Y O *D sky130_fd_sc_hd__a222oi_1
*CAP
1 *722:C 0.000428983
2 *721:Y 0.000428983
3 *722:C *567:93 0
4 *722:C *567:110 0
5 *722:C *567:119 0
6 *691:A2 *722:C 0
7 *697:C1 *722:C 0
8 *722:A *722:C 0
9 *149:15 *722:C 0
10 *195:10 *722:C 0
*RES
1 *721:Y *722:C 46.1179 
*END

*D_NET *202 0.000839728
*CONN
*I *723:A2 I *D sky130_fd_sc_hd__o21a_1
*I *722:Y O *D sky130_fd_sc_hd__nand3_1
*CAP
1 *723:A2 0.000419864
2 *722:Y 0.000419864
3 *723:A2 *699:B1 0
4 *723:A2 *723:B1 0
5 *690:A *723:A2 0
*RES
1 *722:Y *723:A2 36.5464 
*END

*D_NET *203 0.0749714
*CONN
*I *782:B I *D sky130_fd_sc_hd__nand2_1
*I *785:B I *D sky130_fd_sc_hd__nand2_1
*I *779:B I *D sky130_fd_sc_hd__nand2_1
*I *773:B I *D sky130_fd_sc_hd__nand2_1
*I *770:B I *D sky130_fd_sc_hd__nand2_1
*I *863:B I *D sky130_fd_sc_hd__nand2_1
*I *860:B I *D sky130_fd_sc_hd__nand2_1
*I *815:B I *D sky130_fd_sc_hd__nand2_1
*I *812:B I *D sky130_fd_sc_hd__nand2_1
*I *791:B I *D sky130_fd_sc_hd__nand2_1
*I *788:B I *D sky130_fd_sc_hd__nand2_1
*I *776:B I *D sky130_fd_sc_hd__nand2_1
*I *1052:B I *D sky130_fd_sc_hd__nand2_1
*I *769:A2 I *D sky130_fd_sc_hd__o22a_1
*I *980:B I *D sky130_fd_sc_hd__nand2_1
*I *977:B I *D sky130_fd_sc_hd__nand2_1
*I *983:B I *D sky130_fd_sc_hd__nand2_1
*I *1001:B I *D sky130_fd_sc_hd__nand2_1
*I *1037:B I *D sky130_fd_sc_hd__nand2_1
*I *1034:B I *D sky130_fd_sc_hd__nand2_1
*I *1040:B I *D sky130_fd_sc_hd__nand2_1
*I *938:B I *D sky130_fd_sc_hd__nand2_1
*I *935:B I *D sky130_fd_sc_hd__nand2_1
*I *998:B I *D sky130_fd_sc_hd__nand2_1
*I *800:B I *D sky130_fd_sc_hd__nand2_1
*I *830:B I *D sky130_fd_sc_hd__nand2_1
*I *827:B I *D sky130_fd_sc_hd__nand2_1
*I *803:B I *D sky130_fd_sc_hd__nand2_1
*I *857:B I *D sky130_fd_sc_hd__nand2_1
*I *797:B I *D sky130_fd_sc_hd__nand2_1
*I *854:B I *D sky130_fd_sc_hd__nand2_1
*I *809:B I *D sky130_fd_sc_hd__nand2_1
*I *851:B I *D sky130_fd_sc_hd__nand2_1
*I *806:B I *D sky130_fd_sc_hd__nand2_1
*I *818:B I *D sky130_fd_sc_hd__nand2_1
*I *833:B I *D sky130_fd_sc_hd__nand2_1
*I *821:B I *D sky130_fd_sc_hd__nand2_1
*I *848:B I *D sky130_fd_sc_hd__nand2_1
*I *845:B I *D sky130_fd_sc_hd__nand2_1
*I *1049:B I *D sky130_fd_sc_hd__nand2_1
*I *836:B I *D sky130_fd_sc_hd__nand2_1
*I *842:B I *D sky130_fd_sc_hd__nand2_1
*I *839:B I *D sky130_fd_sc_hd__nand2_1
*I *1046:B I *D sky130_fd_sc_hd__nand2_1
*I *1043:B I *D sky130_fd_sc_hd__nand2_1
*I *1004:B I *D sky130_fd_sc_hd__nand2_1
*I *824:B I *D sky130_fd_sc_hd__nand2_1
*I *995:B I *D sky130_fd_sc_hd__nand2_1
*I *872:B I *D sky130_fd_sc_hd__nand2_1
*I *1010:B I *D sky130_fd_sc_hd__nand2_1
*I *1016:B I *D sky130_fd_sc_hd__nand2_1
*I *890:B I *D sky130_fd_sc_hd__nand2_1
*I *887:B I *D sky130_fd_sc_hd__nand2_1
*I *1013:B I *D sky130_fd_sc_hd__nand2_1
*I *902:B I *D sky130_fd_sc_hd__nand2_1
*I *905:B I *D sky130_fd_sc_hd__nand2_1
*I *965:B I *D sky130_fd_sc_hd__nand2_1
*I *962:B I *D sky130_fd_sc_hd__nand2_1
*I *968:B I *D sky130_fd_sc_hd__nand2_1
*I *986:B I *D sky130_fd_sc_hd__nand2_1
*I *908:B I *D sky130_fd_sc_hd__nand2_1
*I *911:B I *D sky130_fd_sc_hd__nand2_1
*I *989:B I *D sky130_fd_sc_hd__nand2_1
*I *917:B I *D sky130_fd_sc_hd__nand2_1
*I *920:B I *D sky130_fd_sc_hd__nand2_1
*I *950:B I *D sky130_fd_sc_hd__nand2_1
*I *926:B I *D sky130_fd_sc_hd__nand2_1
*I *1022:B I *D sky130_fd_sc_hd__nand2_1
*I *944:B I *D sky130_fd_sc_hd__nand2_1
*I *941:B I *D sky130_fd_sc_hd__nand2_1
*I *932:B I *D sky130_fd_sc_hd__nand2_1
*I *1031:B I *D sky130_fd_sc_hd__nand2_1
*I *929:B I *D sky130_fd_sc_hd__nand2_1
*I *1028:B I *D sky130_fd_sc_hd__nand2_1
*I *992:B I *D sky130_fd_sc_hd__nand2_1
*I *1025:B I *D sky130_fd_sc_hd__nand2_1
*I *923:B I *D sky130_fd_sc_hd__nand2_1
*I *947:B I *D sky130_fd_sc_hd__nand2_1
*I *953:B I *D sky130_fd_sc_hd__nand2_1
*I *956:B I *D sky130_fd_sc_hd__nand2_1
*I *914:B I *D sky130_fd_sc_hd__nand2_1
*I *959:B I *D sky130_fd_sc_hd__nand2_1
*I *878:B I *D sky130_fd_sc_hd__nand2_1
*I *896:B I *D sky130_fd_sc_hd__nand2_1
*I *899:B I *D sky130_fd_sc_hd__nand2_1
*I *881:B I *D sky130_fd_sc_hd__nand2_1
*I *893:B I *D sky130_fd_sc_hd__nand2_1
*I *884:B I *D sky130_fd_sc_hd__nand2_1
*I *875:B I *D sky130_fd_sc_hd__nand2_1
*I *974:B I *D sky130_fd_sc_hd__nand2_1
*I *1019:B I *D sky130_fd_sc_hd__nand2_1
*I *971:B I *D sky130_fd_sc_hd__nand2_1
*I *866:B I *D sky130_fd_sc_hd__nand2_1
*I *869:B I *D sky130_fd_sc_hd__nand2_1
*I *794:B I *D sky130_fd_sc_hd__nand2_1
*I *1007:B I *D sky130_fd_sc_hd__nand2_1
*I *726:B I *D sky130_fd_sc_hd__nand2_1
*I *724:X O *D sky130_fd_sc_hd__and2_0
*CAP
1 *782:B 0.000201286
2 *785:B 0.000164494
3 *779:B 0.000189947
4 *773:B 6.07494e-05
5 *770:B 0
6 *863:B 0
7 *860:B 0.000331656
8 *815:B 0
9 *812:B 0.000246916
10 *791:B 0
11 *788:B 4.62038e-05
12 *776:B 1.21912e-05
13 *1052:B 0
14 *769:A2 0
15 *980:B 0
16 *977:B 0.000116915
17 *983:B 2.56688e-05
18 *1001:B 0
19 *1037:B 3.78721e-05
20 *1034:B 0
21 *1040:B 0.000497701
22 *938:B 0
23 *935:B 0.00017078
24 *998:B 2.0535e-05
25 *800:B 0.000216901
26 *830:B 0
27 *827:B 0
28 *803:B 0.000195162
29 *857:B 3.29416e-05
30 *797:B 6.58832e-05
31 *854:B 3.22476e-05
32 *809:B 0
33 *851:B 0.000378046
34 *806:B 9.91025e-05
35 *818:B 0
36 *833:B 0.000232812
37 *821:B 2.0535e-05
38 *848:B 0.000515785
39 *845:B 6.58832e-05
40 *1049:B 0
41 *836:B 0
42 *842:B 0.000176687
43 *839:B 4.56186e-05
44 *1046:B 2.0535e-05
45 *1043:B 0
46 *1004:B 0
47 *824:B 0.00011551
48 *995:B 0.000271098
49 *872:B 8.95659e-05
50 *1010:B 0.000684644
51 *1016:B 4.96263e-05
52 *890:B 0.00012262
53 *887:B 0.000124066
54 *1013:B 0
55 *902:B 2.0535e-05
56 *905:B 0
57 *965:B 4.38508e-05
58 *962:B 0.000135403
59 *968:B 6.50276e-05
60 *986:B 0.00016428
61 *908:B 0.000304148
62 *911:B 0
63 *989:B 0
64 *917:B 0
65 *920:B 0
66 *950:B 0.000243853
67 *926:B 0
68 *1022:B 6.8944e-05
69 *944:B 0
70 *941:B 0.000436797
71 *932:B 9.88248e-05
72 *1031:B 0
73 *929:B 1.91618e-05
74 *1028:B 8.02947e-05
75 *992:B 2.0535e-05
76 *1025:B 0.000118564
77 *923:B 1.21519e-05
78 *947:B 0.000144601
79 *953:B 4.44926e-05
80 *956:B 0
81 *914:B 0.000264789
82 *959:B 0.000119788
83 *878:B 1.32622e-05
84 *896:B 2.7487e-05
85 *899:B 8.0489e-05
86 *881:B 0
87 *893:B 0.000352946
88 *884:B 0.000122453
89 *875:B 0
90 *974:B 0
91 *1019:B 9.34771e-05
92 *971:B 3.14443e-05
93 *866:B 4.17118e-05
94 *869:B 0
95 *794:B 0.000479151
96 *1007:B 0.000885313
97 *726:B 0.000124921
98 *724:X 0.000183104
99 *203:1079 0.000895467
100 *203:1058 0.000273505
101 *203:1020 0.000332478
102 *203:1017 0.000862551
103 *203:1013 0.000810781
104 *203:1004 0.00041807
105 *203:993 0.000401205
106 *203:989 0.000432079
107 *203:988 0.000311268
108 *203:976 0.00035099
109 *203:965 0.00108599
110 *203:955 0.00126216
111 *203:878 0.000768862
112 *203:871 0.0012641
113 *203:864 0.000257293
114 *203:860 0.000489418
115 *203:844 0.000587387
116 *203:826 0.000363589
117 *203:815 0.000243037
118 *203:788 0.00027957
119 *203:777 0.00045214
120 *203:759 0.000407541
121 *203:756 0.000389713
122 *203:746 0.000633655
123 *203:738 0.000592949
124 *203:726 0.000533351
125 *203:718 0.000384604
126 *203:713 0.000519369
127 *203:685 0.00088071
128 *203:678 0.000650816
129 *203:675 0.000633628
130 *203:665 0.000501825
131 *203:662 0.000590339
132 *203:641 0.000410876
133 *203:638 0.000485766
134 *203:630 0.000475728
135 *203:602 0.00059604
136 *203:596 0.00127113
137 *203:582 0.000954281
138 *203:580 0.000557392
139 *203:578 0.00142868
140 *203:560 0.00236129
141 *203:538 0.00077421
142 *203:512 0.000372451
143 *203:505 0.000355747
144 *203:477 0.000179254
145 *203:445 0.00055416
146 *203:435 0.000541279
147 *203:405 0.000243853
148 *203:368 0.000121634
149 *203:348 0.000575271
150 *203:332 0.000684303
151 *203:329 0.00117649
152 *203:321 0.000636586
153 *203:307 0.000410074
154 *203:302 0.000352568
155 *203:300 0.000771415
156 *203:287 0.000860508
157 *203:275 0.000523298
158 *203:271 0.000542586
159 *203:244 0.000572387
160 *203:238 0.000374764
161 *203:236 0.000586664
162 *203:232 0.000369244
163 *203:227 0.000374503
164 *203:225 0.000590797
165 *203:223 0.00046381
166 *203:221 0.000511559
167 *203:219 0.000521935
168 *203:207 0.00052278
169 *203:203 0.000513072
170 *203:154 0.000555827
171 *203:150 0.000511314
172 *203:142 0.000542776
173 *203:138 0.00011182
174 *203:136 0.000206944
175 *203:134 0.000642727
176 *203:132 0.000479151
177 *203:129 0.000591466
178 *203:122 0.000128597
179 *203:102 0.000323427
180 *203:98 0.000656398
181 *203:94 0.000981806
182 *203:90 0.00216725
183 *203:82 0.00230232
184 *203:80 0.00249363
185 *203:71 0.00212862
186 *203:32 0.00147407
187 *203:30 0.00019813
188 *203:25 0.000868287
189 *203:20 0.00201198
190 *203:18 0.000192522
191 *203:16 0.00154889
192 *203:5 0.000854682
193 *726:B uio_out[0] 0
194 *726:B *590:43 0
195 *776:B *497:43 0
196 *779:B *779:A 0
197 *779:B *204:1056 0
198 *782:B *783:A 0
199 *782:B *784:A2 0
200 *782:B *784:B1 0
201 *782:B *499:39 0
202 *785:B *783:A 0
203 *785:B *787:A2 0
204 *785:B *499:39 0
205 *788:B *788:A 0
206 *788:B *793:A2 0
207 *794:B *794:A 0
208 *794:B *796:A1 0
209 *794:B *246:58 0
210 *797:B *799:A2 0
211 *797:B *246:99 0
212 *800:B *802:A2 0
213 *800:B *830:A 0
214 *800:B *832:A2 0
215 *800:B *832:B1 0
216 *803:B *801:A 0
217 *803:B *488:12 0
218 *803:B *488:20 0
219 *803:B *490:8 0
220 *803:B *491:39 0
221 *806:B *481:8 0
222 *812:B *797:A 0
223 *812:B *861:A 0
224 *812:B *204:83 0
225 *821:B *762:B 0
226 *824:B *826:A2 0
227 *824:B *1006:A2 0
228 *833:B *804:A 0
229 *833:B *823:A1 0
230 *833:B *823:B1 0
231 *833:B *204:156 0
232 *833:B *487:10 0
233 *833:B *487:15 0
234 *839:B *840:B 0
235 *839:B *489:43 0
236 *842:B *842:A 0
237 *842:B *843:B 0
238 *842:B *204:175 0
239 *842:B *489:43 0
240 *845:B *847:A2 0
241 *845:B *847:B1 0
242 *848:B *847:B1 0
243 *848:B *848:A 0
244 *848:B *850:A1 0
245 *848:B *1050:B 0
246 *851:B *809:A 0
247 *851:B *849:B 0
248 *851:B *851:A 0
249 *851:B *204:917 0
250 *851:B *492:12 0
251 *854:B *810:A 0
252 *854:B *854:A 0
253 *860:B *817:A2 0
254 *860:B *862:A 0
255 *872:B *874:A 0
256 *872:B *546:10 0
257 *878:B *879:B 0
258 *878:B *896:A 0
259 *884:B *882:B 0
260 *884:B *884:A 0
261 *884:B *549:31 0
262 *887:B *888:B 0
263 *887:B *889:A1 0
264 *887:B *889:A2 0
265 *887:B *889:B1 0
266 *887:B *551:38 0
267 *890:B *891:B 0
268 *890:B *204:484 0
269 *890:B *246:348 0
270 *893:B *883:A 0
271 *893:B *883:B 0
272 *893:B *894:B 0
273 *893:B *895:B 0
274 *893:B *204:666 0
275 *893:B *549:31 0
276 *896:B *896:A 0
277 *899:B *758:D_N 0
278 *899:B *897:A 0
279 *899:B *900:A 0
280 *908:B *204:419 0
281 *908:B *204:432 0
282 *914:B *956:A 0
283 *914:B *246:249 0
284 *929:B *929:A 0
285 *932:B *1029:A 0
286 *932:B *1033:A 0
287 *935:B *939:B 0
288 *935:B *246:181 0
289 *941:B *943:A 0
290 *947:B *948:A 0
291 *947:B *948:B 0
292 *947:B *949:B1 0
293 *950:B *927:A 0
294 *950:B *950:A 0
295 *953:B *953:A 0
296 *953:B *958:B1 0
297 *959:B *760:D 0
298 *959:B *761:D 0
299 *959:B *961:A 0
300 *962:B *960:A 0
301 *962:B *960:B 0
302 *962:B *962:A 0
303 *962:B *966:B 0
304 *962:B *515:21 0
305 *965:B *960:B 0
306 *965:B *967:A 0
307 *965:B *515:21 0
308 *968:B *246:274 0
309 *971:B *971:A 0
310 *971:B *974:A 0
311 *983:B *712:C1 0
312 *986:B *759:A 0
313 *995:B *997:B 0
314 *998:B *1037:A 0
315 *1007:B *755:C 0
316 *1007:B *756:D 0
317 *1007:B *767:B 0
318 *1007:B *871:A 0
319 *1007:B *1008:A 0
320 *1007:B *1009:A 0
321 *1007:B *204:63 0
322 *1007:B *240:6 0
323 *1007:B *481:37 0
324 *1007:B *502:16 0
325 *1007:B *545:10 0
326 *1010:B *697:C2 0
327 *1010:B *704:C1 0
328 *1010:B *872:A 0
329 *1010:B *984:B 0
330 *1010:B *1010:A 0
331 *1019:B *971:A 0
332 *1022:B *1024:A2 0
333 *1022:B *1024:B1 0
334 *1022:B *517:17 0
335 *1025:B *992:A 0
336 *1025:B *204:325 0
337 *1028:B *1026:A 0
338 *1037:B *1036:A2 0
339 *1037:B *1037:A 0
340 *1037:B *1039:A 0
341 *1040:B *1040:A 0
342 *1040:B *204:267 0
343 *1046:B *1045:B 0
344 *203:5 uio_out[0] 0
345 *203:5 *724:A 0
346 *203:5 *590:43 0
347 *203:16 *728:A 0
348 *203:16 *728:B 0
349 *203:16 *1055:A1 0
350 *203:16 *1055:A2 0
351 *203:18 *1055:A2 0
352 *203:20 *1055:A2 0
353 *203:20 *204:38 0
354 *203:25 *682:B2 0
355 *203:25 *751:A 0
356 *203:25 *767:A 0
357 *203:25 *868:B 0
358 *203:25 *204:38 0
359 *203:25 *246:34 0
360 *203:32 *866:A 0
361 *203:32 *871:A 0
362 *203:32 *502:16 0
363 *203:32 *545:10 0
364 *203:71 *647:A 0
365 *203:71 *663:B2 0
366 *203:71 *670:B2 0
367 *203:71 *687:A1 0
368 *203:71 *701:A 0
369 *203:71 *729:A 0
370 *203:71 *569:11 0
371 *203:71 *570:49 0
372 *203:80 *663:C1 0
373 *203:80 *716:A 0
374 *203:80 *721:C2 0
375 *203:80 *738:A 0
376 *203:82 *663:C1 0
377 *203:82 *686:A1 0
378 *203:82 *721:A1 0
379 *203:82 *721:C2 0
380 *203:82 *514:33 0
381 *203:90 *686:A1 0
382 *203:90 *975:A 0
383 *203:90 *1016:A 0
384 *203:90 *1018:A1 0
385 *203:90 *1018:A2 0
386 *203:90 *1018:B1 0
387 *203:90 *204:529 0
388 *203:90 *204:533 0
389 *203:90 *204:624 0
390 *203:90 *514:33 0
391 *203:90 *532:35 0
392 *203:90 *539:32 0
393 *203:90 *549:12 0
394 *203:90 *610:27 0
395 *203:94 *876:B 0
396 *203:94 *877:A2 0
397 *203:94 *877:B1 0
398 *203:94 *204:529 0
399 *203:98 *761:A 0
400 *203:98 *875:A 0
401 *203:98 *976:A1 0
402 *203:98 *976:A2 0
403 *203:98 *976:B1 0
404 *203:98 *204:545 0
405 *203:98 *246:328 0
406 *203:98 *546:26 0
407 *203:102 *974:A 0
408 *203:122 *875:A 0
409 *203:122 *246:328 0
410 *203:122 *246:335 0
411 *203:129 *757:C 0
412 *203:129 *875:A 0
413 *203:129 *246:335 0
414 *203:132 *878:A 0
415 *203:132 *204:481 0
416 *203:134 *878:A 0
417 *203:134 *879:B 0
418 *203:134 *204:473 0
419 *203:134 *204:481 0
420 *203:136 *878:A 0
421 *203:136 *879:B 0
422 *203:136 *896:A 0
423 *203:138 *896:A 0
424 *203:138 *898:A 0
425 *203:150 *758:D_N 0
426 *203:150 *881:A 0
427 *203:150 *897:A 0
428 *203:150 *898:B 0
429 *203:150 *549:31 0
430 *203:154 *881:A 0
431 *203:154 *549:31 0
432 *203:203 *758:A 0
433 *203:203 *758:B 0
434 *203:203 *760:B 0
435 *203:203 *761:B 0
436 *203:203 *901:B1 0
437 *203:203 *906:B 0
438 *203:203 *204:458 0
439 *203:203 *539:42 0
440 *203:207 *663:C1 0
441 *203:207 *760:B 0
442 *203:207 *761:B 0
443 *203:219 *761:C 0
444 *203:219 *961:A 0
445 *203:219 *967:A 0
446 *203:219 *504:37 0
447 *203:221 *761:C 0
448 *203:221 *965:A 0
449 *203:221 *968:A 0
450 *203:223 *761:C 0
451 *203:223 *988:A2 0
452 *203:223 *504:37 0
453 *203:225 *759:A 0
454 *203:225 *991:B 0
455 *203:225 *504:37 0
456 *203:227 *759:A 0
457 *203:227 *916:A 0
458 *203:227 *504:37 0
459 *203:232 *747:D 0
460 *203:232 *759:A 0
461 *203:232 *916:A 0
462 *203:232 *204:398 0
463 *203:232 *504:37 0
464 *203:236 *953:A 0
465 *203:236 *954:A 0
466 *203:244 *955:A2 0
467 *203:244 *955:B1 0
468 *203:244 *958:A2 0
469 *203:271 *759:C 0
470 *203:271 *926:A 0
471 *203:271 *951:A 0
472 *203:271 *957:A 0
473 *203:271 *204:365 0
474 *203:271 *204:389 0
475 *203:271 *460:12 0
476 *203:275 *926:A 0
477 *203:275 *948:A 0
478 *203:275 *204:356 0
479 *203:287 *948:B 0
480 *203:287 *204:345 0
481 *203:302 *944:A 0
482 *203:302 *945:A 0
483 *203:302 *1023:B 0
484 *203:302 *204:325 0
485 *203:307 *944:A 0
486 *203:307 *945:A 0
487 *203:307 *204:325 0
488 *203:329 *994:A2 0
489 *203:332 *246:189 0
490 *203:332 *520:35 0
491 *203:348 *1026:A 0
492 *203:348 *1029:A 0
493 *203:348 *204:320 0
494 *203:348 *246:211 0
495 *203:368 *520:35 0
496 *203:435 *759:C 0
497 *203:435 *914:A 0
498 *203:445 *912:A 0
499 *203:445 *990:A 0
500 *203:445 *204:414 0
501 *203:445 *204:419 0
502 *203:505 *757:C 0
503 *203:505 *204:484 0
504 *203:505 *246:335 0
505 *203:512 *204:484 0
506 *203:512 *246:335 0
507 *203:512 *246:348 0
508 *203:560 *674:C2 0
509 *203:560 *685:B2 0
510 *203:560 *688:A1 0
511 *203:560 *742:C 0
512 *203:578 *688:A1 0
513 *203:578 *693:C2 0
514 *203:578 *706:B2 0
515 *203:578 *711:A1 0
516 *203:578 *740:B 0
517 *203:578 *508:16 0
518 *203:578 *518:49 0
519 *203:578 *524:10 0
520 *203:580 *508:16 0
521 *203:582 *996:A 0
522 *203:596 *996:A 0
523 *203:596 *996:B 0
524 *203:596 *997:B 0
525 *203:596 *1043:A 0
526 *203:596 *524:13 0
527 *203:602 *826:A2 0
528 *203:602 *826:B1 0
529 *203:602 *996:B 0
530 *203:602 *1006:A2 0
531 *203:602 *1043:A 0
532 *203:602 *484:26 0
533 *203:630 *996:A 0
534 *203:630 *1043:A 0
535 *203:630 *1045:A 0
536 *203:630 *1045:B 0
537 *203:630 *1046:A 0
538 *203:630 *204:224 0
539 *203:638 *1046:A 0
540 *203:641 *204:195 0
541 *203:641 *204:838 0
542 *203:641 *489:43 0
543 *203:662 *204:838 0
544 *203:662 *487:22 0
545 *203:662 *489:43 0
546 *203:665 *487:22 0
547 *203:675 *487:15 0
548 *203:675 *487:22 0
549 *203:678 *1049:A 0
550 *203:678 *488:20 0
551 *203:678 *491:39 0
552 *203:685 *847:A1 0
553 *203:685 *847:A2 0
554 *203:685 *1051:A 0
555 *203:685 *204:175 0
556 *203:713 *488:20 0
557 *203:713 *491:39 0
558 *203:718 *762:B 0
559 *203:718 *246:137 0
560 *203:718 *246:139 0
561 *203:718 *488:20 0
562 *203:726 *823:A2 0
563 *203:726 *246:137 0
564 *203:738 *823:A2 0
565 *203:738 *246:135 0
566 *203:746 *820:A1 0
567 *203:746 *820:A2 0
568 *203:746 *246:131 0
569 *203:746 *246:135 0
570 *203:756 *811:A1 0
571 *203:756 *811:A2 0
572 *203:756 *811:B1 0
573 *203:756 *246:131 0
574 *203:759 *809:A 0
575 *203:759 *492:12 0
576 *203:777 *811:B1 0
577 *203:777 *856:A 0
578 *203:777 *856:B 0
579 *203:788 *798:A 0
580 *203:788 *799:B1 0
581 *203:788 *855:A 0
582 *203:815 *204:838 0
583 *203:815 *487:22 0
584 *203:826 *827:A 0
585 *203:826 *828:A 0
586 *203:826 *487:22 0
587 *203:844 *998:A 0
588 *203:844 *204:237 0
589 *203:860 *1000:A2 0
590 *203:860 *1036:B1 0
591 *203:860 *1037:A 0
592 *203:860 *1039:A 0
593 *203:860 *204:237 0
594 *203:860 *522:26 0
595 *203:864 *1036:A2 0
596 *203:871 *733:A 0
597 *203:871 *733:D 0
598 *203:878 *938:A 0
599 *203:878 *940:A2 0
600 *203:878 *204:267 0
601 *203:878 *457:13 0
602 *203:955 *769:B1 0
603 *203:955 *497:14 0
604 *203:965 *483:9 0
605 *203:965 *498:42 0
606 *203:976 *1054:A2 0
607 *203:976 *246:604 0
608 *203:976 *498:42 0
609 *203:976 *501:10 0
610 *203:988 *774:A 0
611 *203:988 *497:43 0
612 *203:989 *777:A 0
613 *203:989 *778:A2 0
614 *203:993 *777:A 0
615 *203:993 *778:B1 0
616 *203:993 *792:A 0
617 *203:993 *204:1010 0
618 *203:993 *204:1023 0
619 *203:1004 *788:A 0
620 *203:1004 *791:A 0
621 *203:1004 *793:A2 0
622 *203:1013 *791:A 0
623 *203:1013 *792:A 0
624 *203:1013 *793:A2 0
625 *203:1013 *204:986 0
626 *203:1013 *246:83 0
627 *203:1017 *815:A 0
628 *203:1017 *246:83 0
629 *203:1058 *777:A 0
630 *203:1079 *783:B 0
631 *203:1079 *784:A1 0
632 *203:1079 *786:A 0
633 *203:1079 *1054:A2 0
634 *203:1079 *246:608 0
635 *203:1079 *246:617 0
636 *203:1079 *246:621 0
637 *203:1079 *501:10 0
638 *619:A *203:5 0
639 *647:C *203:71 0
640 *650:B *203:71 0
641 *690:A *203:560 0
642 *690:C *203:560 0
643 *697:C1 *203:560 0
644 *707:C *203:560 0
645 *707:C *203:578 0
646 *708:A1 *203:71 0
647 *722:A *203:560 0
648 *722:B *203:560 0
649 *725:B *203:16 0
650 *1084:D *779:B 0
651 *1084:D *203:955 0
652 *1084:D *203:988 0
653 *1084:D *203:989 0
654 *1084:D *203:1058 0
655 *1087:D *785:B 0
656 *1088:D *785:B 0
657 *1096:D *806:B 0
658 *1100:D *203:738 0
659 *1100:D *203:746 0
660 *1103:D *800:B 0
661 *1108:D *833:B 0
662 *1111:D *854:B 0
663 *1111:D *203:788 0
664 *1113:D *812:B 0
665 *1113:D *860:B 0
666 *1113:D *203:1017 0
667 *1114:D *203:1017 0
668 *1118:D *203:98 0
669 *1119:D *203:150 0
670 *1123:D *890:B 0
671 *1138:D *935:B 0
672 *1142:D *203:271 0
673 *1148:D *1019:B 0
674 *1148:D *203:98 0
675 *1148:D *203:102 0
676 *1151:D *203:98 0
677 *1158:D *995:B 0
678 *1158:D *203:582 0
679 *1160:D *203:578 0
680 *1174:D *203:630 0
681 *1176:D *848:B 0
682 *1177:D *203:16 0
683 *1177:D *203:955 0
684 *29:8 *803:B 0
685 *32:10 *848:B 0
686 *33:11 *848:B 0
687 *52:8 *203:207 0
688 *64:17 *935:B 0
689 *64:17 *941:B 0
690 *65:14 *1025:B 0
691 *65:14 *203:307 0
692 *65:14 *203:332 0
693 *68:16 *953:B 0
694 *68:16 *203:244 0
695 *92:10 *203:368 0
696 *93:13 *1028:B 0
697 *97:10 *995:B 0
698 *97:10 *203:578 0
699 *97:10 *203:580 0
700 *97:10 *203:582 0
701 *99:14 *203:602 0
702 *111:20 *203:16 0
703 *134:14 *203:71 0
704 *136:8 *203:71 0
705 *141:15 *977:B 0
706 *145:21 *203:560 0
707 *145:27 *203:560 0
708 *145:38 *983:B 0
709 *146:16 *203:71 0
710 *146:16 *203:80 0
711 *176:17 *203:560 0
*RES
1 *724:X *203:5 13.1214 
2 *203:5 *726:B 11.9071 
3 *203:5 *203:16 16.9196 
4 *203:16 *203:18 2.70536 
5 *203:18 *203:20 1.79464 
6 *203:20 *203:25 20.7589 
7 *203:25 *203:30 6.57143 
8 *203:30 *203:32 2.55357 
9 *203:32 *1007:B 33.6393 
10 *203:32 *794:B 23.8 
11 *203:30 *869:B 13.8 
12 *203:25 *866:B 10.2643 
13 *203:20 *203:71 18.5265 
14 *203:71 *203:80 8.935 
15 *203:80 *203:82 2.4252 
16 *203:82 *203:90 19.9717 
17 *203:90 *203:94 14.4821 
18 *203:94 *203:98 14.7857 
19 *203:98 *203:102 4.14286 
20 *203:102 *971:B 10.0321 
21 *203:102 *1019:B 11.3893 
22 *203:98 *974:B 9.3 
23 *203:94 *203:122 1.03571 
24 *203:122 *875:B 13.8 
25 *203:122 *203:129 1.94643 
26 *203:129 *203:132 10.375 
27 *203:132 *203:134 3.82143 
28 *203:134 *203:136 3 
29 *203:136 *203:138 1.15179 
30 *203:138 *203:142 0.758929 
31 *203:142 *203:150 18.8036 
32 *203:150 *203:154 1.67857 
33 *203:154 *884:B 21.1571 
34 *203:154 *893:B 16.7286 
35 *203:150 *881:B 9.3 
36 *203:142 *899:B 20.1125 
37 *203:138 *896:B 9.95625 
38 *203:136 *878:B 9.72857 
39 *203:134 *203:203 11.8393 
40 *203:203 *203:207 8.875 
41 *203:207 *959:B 11.8 
42 *203:207 *203:219 9.32143 
43 *203:219 *203:221 7.10714 
44 *203:221 *203:223 3.16071 
45 *203:223 *203:225 3.76786 
46 *203:225 *203:227 3.16071 
47 *203:227 *203:232 10.0179 
48 *203:232 *203:236 2.91071 
49 *203:236 *203:238 0.535714 
50 *203:238 *203:244 6.51786 
51 *203:244 *914:B 24.2286 
52 *203:244 *956:B 9.3 
53 *203:238 *953:B 10.5679 
54 *203:236 *203:271 14.2679 
55 *203:271 *203:275 7.05357 
56 *203:275 *947:B 12.3179 
57 *203:275 *203:287 10.3125 
58 *203:287 *923:B 14.0768 
59 *203:287 *203:300 9.16165 
60 *203:300 *203:302 2.85714 
61 *203:302 *203:307 9.44643 
62 *203:307 *1025:B 20.9071 
63 *203:307 *203:321 1.35714 
64 *203:321 *992:B 9.72857 
65 *203:321 *203:329 11.625 
66 *203:329 *203:332 8.72321 
67 *203:332 *203:348 28.875 
68 *203:348 *1028:B 15.7375 
69 *203:348 *929:B 14.3804 
70 *203:332 *203:368 5.08036 
71 *203:368 *1031:B 9.3 
72 *203:368 *932:B 11.5143 
73 *203:329 *941:B 18.4786 
74 *203:302 *944:B 13.8 
75 *203:300 *1022:B 15.2821 
76 *203:271 *203:405 4.5 
77 *203:405 *926:B 9.3 
78 *203:405 *950:B 14.3893 
79 *203:232 *920:B 9.3 
80 *203:227 *917:B 13.8 
81 *203:225 *203:435 19.6786 
82 *203:435 *989:B 9.3 
83 *203:435 *203:445 9.875 
84 *203:445 *911:B 13.8 
85 *203:445 *908:B 20.55 
86 *203:223 *986:B 17.2286 
87 *203:221 *968:B 15.1571 
88 *203:219 *203:477 4.5 
89 *203:477 *962:B 12.3089 
90 *203:477 *965:B 10.2464 
91 *203:203 *905:B 13.8 
92 *203:132 *902:B 9.72857 
93 *203:129 *203:505 5.28571 
94 *203:505 *1013:B 13.8 
95 *203:505 *203:512 2.85714 
96 *203:512 *887:B 16.3893 
97 *203:512 *890:B 16.7107 
98 *203:90 *1016:B 10.3357 
99 *203:82 *203:538 3.41 
100 *203:538 *1010:B 28.5054 
101 *203:538 *872:B 15.8982 
102 *203:80 *203:560 26.5082 
103 *203:560 *203:578 47.4107 
104 *203:578 *203:580 2.55357 
105 *203:580 *203:582 5.58929 
106 *203:582 *995:B 19.8357 
107 *203:582 *203:596 13.6786 
108 *203:596 *203:602 19.7143 
109 *203:602 *824:B 11.925 
110 *203:602 *1004:B 9.3 
111 *203:596 *1043:B 9.3 
112 *203:596 *203:630 7.69643 
113 *203:630 *1046:B 9.72857 
114 *203:630 *203:638 2.17857 
115 *203:638 *203:641 8.875 
116 *203:641 *839:B 14.8357 
117 *203:641 *842:B 17.425 
118 *203:638 *203:662 8.82143 
119 *203:662 *203:665 10.7857 
120 *203:665 *836:B 9.3 
121 *203:665 *203:675 8.75 
122 *203:675 *203:678 12.5179 
123 *203:678 *1049:B 9.3 
124 *203:678 *203:685 6.30357 
125 *203:685 *845:B 10.675 
126 *203:685 *848:B 29.4786 
127 *203:675 *203:713 1.875 
128 *203:713 *203:718 9.57143 
129 *203:718 *821:B 9.72857 
130 *203:718 *203:726 2.58929 
131 *203:726 *833:B 23.5857 
132 *203:726 *203:738 3.83929 
133 *203:738 *818:B 9.3 
134 *203:738 *203:746 8.66071 
135 *203:746 *806:B 20.55 
136 *203:746 *203:756 2.58929 
137 *203:756 *203:759 5.23214 
138 *203:759 *851:B 22.2643 
139 *203:759 *809:B 13.8 
140 *203:756 *203:777 9.55357 
141 *203:777 *854:B 14.5321 
142 *203:777 *203:788 8.69643 
143 *203:788 *797:B 10.675 
144 *203:788 *857:B 10.2643 
145 *203:713 *803:B 18.2107 
146 *203:662 *203:815 2.25 
147 *203:815 *827:B 13.8 
148 *203:815 *203:826 7.89286 
149 *203:826 *830:B 9.3 
150 *203:826 *800:B 14.1036 
151 *203:580 *203:844 8.73214 
152 *203:844 *998:B 9.72857 
153 *203:844 *203:860 8 
154 *203:860 *203:864 2.19643 
155 *203:864 *203:871 12.8036 
156 *203:871 *203:878 12.6071 
157 *203:878 *935:B 22.0321 
158 *203:878 *938:B 9.3 
159 *203:871 *1040:B 29.3536 
160 *203:864 *1034:B 9.3 
161 *203:860 *1037:B 10.2643 
162 *203:578 *1001:B 13.8 
163 *203:560 *983:B 14.3357 
164 *203:71 *977:B 25.3 
165 *203:18 *980:B 13.8 
166 *203:16 *203:955 16.2222 
167 *203:955 *769:A2 9.3 
168 *203:955 *203:965 8.07143 
169 *203:965 *1052:B 9.3 
170 *203:965 *203:976 8.49107 
171 *203:976 *776:B 14.0768 
172 *203:976 *203:988 7.37147 
173 *203:988 *203:989 3.00893 
174 *203:989 *203:993 11.3036 
175 *203:993 *788:B 10.2643 
176 *203:993 *203:1004 1.375 
177 *203:1004 *791:B 9.3 
178 *203:1004 *203:1013 12.75 
179 *203:1013 *203:1017 14.6429 
180 *203:1017 *203:1020 1.78571 
181 *203:1020 *812:B 23.7464 
182 *203:1020 *815:B 9.3 
183 *203:1017 *860:B 25.6929 
184 *203:1013 *863:B 13.8 
185 *203:989 *770:B 13.8 
186 *203:988 *203:1058 0.580357 
187 *203:1058 *773:B 15.0679 
188 *203:1058 *779:B 18.175 
189 *203:965 *203:1079 20.9643 
190 *203:1079 *785:B 12.9964 
191 *203:1079 *782:B 13.9607 
*END

*D_NET *204 0.0700479
*CONN
*I *727:B I *D sky130_fd_sc_hd__nand2_1
*I *981:B I *D sky130_fd_sc_hd__nand2_1
*I *867:B I *D sky130_fd_sc_hd__nand2_1
*I *795:B I *D sky130_fd_sc_hd__nand2_1
*I *813:B I *D sky130_fd_sc_hd__nand2_1
*I *780:B I *D sky130_fd_sc_hd__nand2_1
*I *783:B I *D sky130_fd_sc_hd__nand2_1
*I *786:B I *D sky130_fd_sc_hd__nand2_1
*I *1053:B I *D sky130_fd_sc_hd__nand2_1
*I *774:B I *D sky130_fd_sc_hd__nand2_1
*I *771:B I *D sky130_fd_sc_hd__nand2_1
*I *777:B I *D sky130_fd_sc_hd__nand2_1
*I *729:SLEEP I *D sky130_fd_sc_hd__lpflow_inputiso1p_1
*I *792:B I *D sky130_fd_sc_hd__nand2_1
*I *789:B I *D sky130_fd_sc_hd__nand2_1
*I *864:B I *D sky130_fd_sc_hd__nand2_1
*I *861:B I *D sky130_fd_sc_hd__nand2_1
*I *816:B I *D sky130_fd_sc_hd__nand2_1
*I *858:B I *D sky130_fd_sc_hd__nand2_1
*I *807:B I *D sky130_fd_sc_hd__nand2_1
*I *798:B I *D sky130_fd_sc_hd__nand2_1
*I *810:B I *D sky130_fd_sc_hd__nand2_1
*I *852:B I *D sky130_fd_sc_hd__nand2_1
*I *849:B I *D sky130_fd_sc_hd__nand2_1
*I *834:B I *D sky130_fd_sc_hd__nand2_1
*I *822:B I *D sky130_fd_sc_hd__nand2_1
*I *804:B I *D sky130_fd_sc_hd__nand2_1
*I *1050:B I *D sky130_fd_sc_hd__nand2_1
*I *846:B I *D sky130_fd_sc_hd__nand2_1
*I *843:B I *D sky130_fd_sc_hd__nand2_1
*I *828:B I *D sky130_fd_sc_hd__nand2_1
*I *801:B I *D sky130_fd_sc_hd__nand2_1
*I *831:B I *D sky130_fd_sc_hd__nand2_1
*I *1005:B I *D sky130_fd_sc_hd__nand2_1
*I *825:B I *D sky130_fd_sc_hd__nand2_1
*I *1002:B I *D sky130_fd_sc_hd__nand2_1
*I *996:B I *D sky130_fd_sc_hd__nand2_1
*I *999:B I *D sky130_fd_sc_hd__nand2_1
*I *1038:B I *D sky130_fd_sc_hd__nand2_1
*I *936:B I *D sky130_fd_sc_hd__nand2_1
*I *933:B I *D sky130_fd_sc_hd__nand2_1
*I *930:B I *D sky130_fd_sc_hd__nand2_1
*I *942:B I *D sky130_fd_sc_hd__nand2_1
*I *1029:B I *D sky130_fd_sc_hd__nand2_1
*I *1026:B I *D sky130_fd_sc_hd__nand2_1
*I *1023:B I *D sky130_fd_sc_hd__nand2_1
*I *945:B I *D sky130_fd_sc_hd__nand2_1
*I *921:B I *D sky130_fd_sc_hd__nand2_1
*I *918:B I *D sky130_fd_sc_hd__nand2_1
*I *990:B I *D sky130_fd_sc_hd__nand2_1
*I *912:B I *D sky130_fd_sc_hd__nand2_1
*I *897:B I *D sky130_fd_sc_hd__nand2_1
*I *894:B I *D sky130_fd_sc_hd__nand2_1
*I *885:B I *D sky130_fd_sc_hd__nand2_1
*I *882:B I *D sky130_fd_sc_hd__nand2_1
*I *1014:B I *D sky130_fd_sc_hd__nand2_1
*I *1017:B I *D sky130_fd_sc_hd__nand2_1
*I *1011:B I *D sky130_fd_sc_hd__nand2_1
*I *873:B I *D sky130_fd_sc_hd__nand2_1
*I *984:B I *D sky130_fd_sc_hd__nand2_1
*I *972:B I *D sky130_fd_sc_hd__nand2_1
*I *975:B I *D sky130_fd_sc_hd__nand2_1
*I *1020:B I *D sky130_fd_sc_hd__nand2_1
*I *966:B I *D sky130_fd_sc_hd__nand2_1
*I *960:B I *D sky130_fd_sc_hd__nand2_1
*I *987:B I *D sky130_fd_sc_hd__nand2_1
*I *969:B I *D sky130_fd_sc_hd__nand2_1
*I *876:B I *D sky130_fd_sc_hd__nand2_1
*I *891:B I *D sky130_fd_sc_hd__nand2_1
*I *888:B I *D sky130_fd_sc_hd__nand2_1
*I *903:B I *D sky130_fd_sc_hd__nand2_1
*I *879:B I *D sky130_fd_sc_hd__nand2_1
*I *906:B I *D sky130_fd_sc_hd__nand2_1
*I *900:B I *D sky130_fd_sc_hd__nand2_1
*I *963:B I *D sky130_fd_sc_hd__nand2_1
*I *909:B I *D sky130_fd_sc_hd__nand2_1
*I *915:B I *D sky130_fd_sc_hd__nand2_1
*I *954:B I *D sky130_fd_sc_hd__nand2_1
*I *957:B I *D sky130_fd_sc_hd__nand2_1
*I *951:B I *D sky130_fd_sc_hd__nand2_1
*I *927:B I *D sky130_fd_sc_hd__nand2_1
*I *948:B I *D sky130_fd_sc_hd__nand2_1
*I *924:B I *D sky130_fd_sc_hd__nand2_1
*I *1032:B I *D sky130_fd_sc_hd__nand2_1
*I *993:B I *D sky130_fd_sc_hd__nand2_1
*I *939:B I *D sky130_fd_sc_hd__nand2_1
*I *1041:B I *D sky130_fd_sc_hd__nand2_1
*I *1035:B I *D sky130_fd_sc_hd__nand2_1
*I *1044:B I *D sky130_fd_sc_hd__nand2_1
*I *1047:B I *D sky130_fd_sc_hd__nand2_1
*I *840:B I *D sky130_fd_sc_hd__nand2_1
*I *837:B I *D sky130_fd_sc_hd__nand2_1
*I *819:B I *D sky130_fd_sc_hd__nand2_1
*I *855:B I *D sky130_fd_sc_hd__nand2_1
*I *1008:B I *D sky130_fd_sc_hd__nand2_1
*I *870:B I *D sky130_fd_sc_hd__nand2_1
*I *978:B I *D sky130_fd_sc_hd__nand2_1
*I *725:Y O *D sky130_fd_sc_hd__nand2_1
*CAP
1 *727:B 0
2 *981:B 0
3 *867:B 0
4 *795:B 0
5 *813:B 0.000126442
6 *780:B 9.92526e-05
7 *783:B 0.000139196
8 *786:B 0.000105242
9 *1053:B 0
10 *774:B 0.000207015
11 *771:B 0
12 *777:B 0
13 *729:SLEEP 0.000576692
14 *792:B 4.62038e-05
15 *789:B 8.55626e-05
16 *864:B 2.56688e-05
17 *861:B 2.56688e-05
18 *816:B 9.71136e-05
19 *858:B 0
20 *807:B 0
21 *798:B 1.49842e-05
22 *810:B 0
23 *852:B 0.000124921
24 *849:B 0.000514415
25 *834:B 2.37436e-05
26 *822:B 1.8289e-05
27 *804:B 0
28 *1050:B 5.2621e-05
29 *846:B 4.98402e-05
30 *843:B 2.0535e-05
31 *828:B 0
32 *801:B 0
33 *831:B 9.81831e-05
34 *1005:B 0.000203317
35 *825:B 0
36 *1002:B 0.000196458
37 *996:B 0.00024511
38 *999:B 0.000146488
39 *1038:B 2.0535e-05
40 *936:B 6.95881e-05
41 *933:B 1.90377e-05
42 *930:B 0.00014641
43 *942:B 2.0535e-05
44 *1029:B 0.00025775
45 *1026:B 3.40111e-05
46 *1023:B 9.91025e-05
47 *945:B 3.50807e-05
48 *921:B 4.23535e-05
49 *918:B 0.000260006
50 *990:B 4.28658e-05
51 *912:B 0
52 *897:B 0.000124771
53 *894:B 2.41714e-05
54 *885:B 7.23606e-05
55 *882:B 7.75958e-05
56 *1014:B 0
57 *1017:B 0
58 *1011:B 0
59 *873:B 0.000190774
60 *984:B 0.000785943
61 *972:B 0
62 *975:B 0
63 *1020:B 0
64 *966:B 1.75403e-05
65 *960:B 0.000321074
66 *987:B 0.000223318
67 *969:B 8.56726e-05
68 *876:B 0.000125777
69 *891:B 9.31446e-05
70 *888:B 0.000240497
71 *903:B 0
72 *879:B 0.000158291
73 *906:B 0.000246144
74 *900:B 0
75 *963:B 0
76 *909:B 0.000186954
77 *915:B 0
78 *954:B 0
79 *957:B 2.0535e-05
80 *951:B 0.000150759
81 *927:B 0
82 *948:B 0.000144601
83 *924:B 0
84 *1032:B 0.000178177
85 *993:B 0.000636262
86 *939:B 3.50005e-05
87 *1041:B 0.000336634
88 *1035:B 4.62038e-05
89 *1044:B 0
90 *1047:B 0.000203948
91 *840:B 0.00014098
92 *837:B 0
93 *819:B 8.57316e-05
94 *855:B 0.000158638
95 *1008:B 3.50807e-05
96 *870:B 0.000218185
97 *978:B 0.000779207
98 *725:Y 0.00068199
99 *204:1068 0.000404868
100 *204:1066 0.000470144
101 *204:1056 0.000696733
102 *204:1028 0.000366162
103 *204:1023 0.000715025
104 *204:1012 0.000576692
105 *204:1010 0.00020607
106 *204:999 0.00042706
107 *204:986 0.000547785
108 *204:975 0.000354437
109 *204:973 0.000355135
110 *204:917 0.000869356
111 *204:915 0.00032637
112 *204:875 0.000184349
113 *204:846 0.000460501
114 *204:838 0.000588444
115 *204:804 0.000441568
116 *204:666 0.00034397
117 *204:663 0.000557788
118 *204:636 0.000292165
119 *204:624 0.00224841
120 *204:580 0.000653202
121 *204:559 0.000445414
122 *204:558 0.000575077
123 *204:554 0.00041556
124 *204:545 0.000726031
125 *204:537 0.00071583
126 *204:533 0.00193791
127 *204:529 0.000842647
128 *204:513 0.00074796
129 *204:508 0.00021668
130 *204:484 0.000692141
131 *204:481 0.000891768
132 *204:473 0.000453696
133 *204:460 0.000220324
134 *204:458 0.000409211
135 *204:450 0.000674687
136 *204:441 0.000358935
137 *204:439 0.000678487
138 *204:432 0.00085063
139 *204:419 0.000782964
140 *204:414 0.00047129
141 *204:409 0.000391636
142 *204:402 0.00040166
143 *204:398 0.000574676
144 *204:389 0.00021541
145 *204:370 0.000371938
146 *204:366 0.000388502
147 *204:365 0.000414573
148 *204:356 0.000449402
149 *204:345 0.000531236
150 *204:335 0.000709281
151 *204:328 0.000755769
152 *204:325 0.000481907
153 *204:320 0.000532539
154 *204:314 0.000714012
155 *204:312 0.000361074
156 *204:310 0.000664063
157 *204:308 0.000357438
158 *204:285 0.000814438
159 *204:283 0.000245007
160 *204:272 0.000347175
161 *204:267 0.000858318
162 *204:262 0.000925202
163 *204:248 0.000709032
164 *204:237 0.000237637
165 *204:235 0.000643821
166 *204:231 0.000457974
167 *204:229 0.000339897
168 *204:224 0.000805865
169 *204:214 0.000314423
170 *204:200 0.000584529
171 *204:195 0.000796674
172 *204:179 0.000385713
173 *204:175 0.000436369
174 *204:166 0.000871542
175 *204:156 0.00121294
176 *204:151 0.000703155
177 *204:139 0.000184067
178 *204:135 0.00037455
179 *204:123 0.000741355
180 *204:119 0.000714112
181 *204:115 0.00031487
182 *204:112 7.95625e-05
183 *204:99 0.000683886
184 *204:93 0.0012394
185 *204:88 0.000947895
186 *204:83 0.000582269
187 *204:82 0.00103505
188 *204:76 0.0011312
189 *204:63 0.00114902
190 *204:45 0.000890707
191 *204:41 0.000622871
192 *204:38 0.000846367
193 *204:18 0.00135471
194 *204:11 0.00084155
195 *774:B *772:B1 0
196 *774:B *773:A 0
197 *774:B *774:A 0
198 *780:B *781:A1 0
199 *780:B *781:B1 0
200 *783:B *786:A 0
201 *783:B *787:B1 0
202 *786:B *786:A 0
203 *786:B *787:A1 0
204 *789:B *790:B1 0
205 *792:B *793:B1 0
206 *798:B *798:A 0
207 *813:B *246:83 0
208 *813:B *479:32 0
209 *816:B *817:B1 0
210 *819:B *528:11 0
211 *831:B *832:B1 0
212 *834:B *834:A 0
213 *840:B *839:A 0
214 *840:B *841:B1 0
215 *840:B *842:A 0
216 *840:B *844:A 0
217 *843:B *842:A 0
218 *843:B *843:A 0
219 *846:B *847:B1 0
220 *849:B *848:A 0
221 *849:B *850:B1 0
222 *849:B *853:A 0
223 *849:B *492:12 0
224 *852:B *853:B 0
225 *855:B *855:A 0
226 *855:B *856:A 0
227 *855:B *856:B 0
228 *864:B *864:A 0
229 *870:B *663:A1 0
230 *870:B *871:A 0
231 *870:B *871:B 0
232 *876:B *877:B1 0
233 *879:B *896:A 0
234 *882:B *884:A 0
235 *882:B *549:31 0
236 *885:B *884:A 0
237 *885:B *885:A 0
238 *888:B *890:A 0
239 *888:B *551:38 0
240 *891:B *890:A 0
241 *897:B *549:31 0
242 *906:B *757:A_N 0
243 *906:B *761:B 0
244 *906:B *541:28 0
245 *909:B *910:A1 0
246 *909:B *246:274 0
247 *918:B *226:24 0
248 *918:B *462:12 0
249 *918:B *464:14 0
250 *921:B *922:A 0
251 *936:B *457:13 0
252 *939:B *246:181 0
253 *939:B *246:186 0
254 *948:B *948:A 0
255 *960:B *960:A 0
256 *960:B *963:A 0
257 *960:B *964:A2 0
258 *960:B *967:A 0
259 *960:B *515:21 0
260 *969:B *515:21 0
261 *969:B *517:17 0
262 *978:B *979:B 0
263 *978:B *1081:CLK 0
264 *978:B *1177:CLK 0
265 *978:B *533:18 0
266 *978:B *614:31 0
267 *984:B *678:B2 0
268 *984:B *704:C1 0
269 *984:B *872:A 0
270 *984:B *463:10 0
271 *984:B *517:46 0
272 *987:B *968:A 0
273 *990:B *759:B 0
274 *990:B *759:C 0
275 *990:B *989:A 0
276 *993:B *994:B1 0
277 *993:B *246:181 0
278 *993:B *246:186 0
279 *996:B *996:A 0
280 *999:B *730:A 0
281 *999:B *522:14 0
282 *1002:B *825:A 0
283 *1002:B *1003:A 0
284 *1002:B *1003:B 0
285 *1002:B *246:148 0
286 *1002:B *246:155 0
287 *1008:B *756:A 0
288 *1023:B *1025:A 0
289 *1029:B *929:A 0
290 *1029:B *1026:A 0
291 *1029:B *1029:A 0
292 *1029:B *246:211 0
293 *1032:B *1033:A 0
294 *1035:B *1037:A 0
295 *1035:B *1039:A 0
296 *1041:B *731:B 0
297 *1041:B *1041:A 0
298 *1041:B *1042:A1 0
299 *1047:B *1046:A 0
300 *1047:B *1048:A2 0
301 *1047:B *1048:B1 0
302 *1050:B *848:A 0
303 *204:11 *618:B 0
304 *204:11 *751:A 0
305 *204:11 *1055:A1 0
306 *204:11 *1178:RESET_B 0
307 *204:11 *1184:CLK 0
308 *204:11 *552:15 0
309 *204:11 *590:31 0
310 *204:11 *590:43 0
311 *204:11 *591:9 0
312 *204:38 *701:A 0
313 *204:38 *751:A 0
314 *204:38 *483:17 0
315 *204:41 *246:34 0
316 *204:41 *534:16 0
317 *204:41 *544:12 0
318 *204:45 *765:B 0
319 *204:45 *502:16 0
320 *204:63 *866:A 0
321 *204:63 *871:A 0
322 *204:63 *615:13 0
323 *204:76 *1009:B 0
324 *204:76 *473:41 0
325 *204:76 *503:29 0
326 *204:82 *473:30 0
327 *204:82 *473:41 0
328 *204:83 *797:A 0
329 *204:83 *812:A 0
330 *204:83 *861:A 0
331 *204:83 *246:89 0
332 *204:93 *798:A 0
333 *204:93 *858:A 0
334 *204:93 *246:99 0
335 *204:99 *798:A 0
336 *204:99 *855:A 0
337 *204:99 *859:A 0
338 *204:99 *495:40 0
339 *204:115 *798:A 0
340 *204:115 *799:B1 0
341 *204:115 *807:A 0
342 *204:119 *799:A2 0
343 *204:119 *799:B1 0
344 *204:119 *807:A 0
345 *204:119 *246:100 0
346 *204:123 *806:A 0
347 *204:123 *808:A1 0
348 *204:123 *808:A2 0
349 *204:123 *246:100 0
350 *204:135 *806:A 0
351 *204:135 *834:A 0
352 *204:135 *835:B1 0
353 *204:139 *805:B1 0
354 *204:139 *823:B1 0
355 *204:151 *805:B1 0
356 *204:156 *821:A 0
357 *204:156 *845:A 0
358 *204:156 *847:A1 0
359 *204:156 *1050:A 0
360 *204:156 *1051:A 0
361 *204:156 *487:15 0
362 *204:175 *838:B1 0
363 *204:175 *839:A 0
364 *204:175 *843:A 0
365 *204:175 *844:A 0
366 *204:175 *844:B 0
367 *204:179 *839:A 0
368 *204:179 *842:A 0
369 *204:179 *844:A 0
370 *204:195 *838:A1 0
371 *204:195 *844:A 0
372 *204:200 *730:B 0
373 *204:224 *1045:B 0
374 *204:224 *246:435 0
375 *204:229 *825:A 0
376 *204:229 *246:148 0
377 *204:235 *998:A 0
378 *204:237 *1037:A 0
379 *204:237 *522:26 0
380 *204:248 *731:A 0
381 *204:248 *1042:A1 0
382 *204:248 *523:11 0
383 *204:262 *731:B 0
384 *204:262 *733:C 0
385 *204:262 *523:11 0
386 *204:262 *523:15 0
387 *204:267 *733:C 0
388 *204:267 *733:D 0
389 *204:267 *938:A 0
390 *204:272 *941:A 0
391 *204:272 *457:13 0
392 *204:283 *246:181 0
393 *204:308 *933:A 0
394 *204:310 *934:A1 0
395 *204:310 *934:B1 0
396 *204:310 *943:B 0
397 *204:312 *934:A1 0
398 *204:312 *943:B 0
399 *204:320 *1027:A 0
400 *204:325 *1025:A 0
401 *204:325 *1027:A 0
402 *204:328 *946:A 0
403 *204:328 *946:B 0
404 *204:345 *924:A 0
405 *204:356 *923:A 0
406 *204:356 *926:A 0
407 *204:356 *246:222 0
408 *204:365 *747:D 0
409 *204:365 *923:A 0
410 *204:365 *926:A 0
411 *204:365 *951:A 0
412 *204:370 *957:A 0
413 *204:370 *958:B1 0
414 *204:389 *951:A 0
415 *204:389 *957:A 0
416 *204:389 *461:14 0
417 *204:398 *957:A 0
418 *204:398 *461:14 0
419 *204:402 *759:C 0
420 *204:402 *504:37 0
421 *204:409 *759:B 0
422 *204:409 *759:C 0
423 *204:409 *504:37 0
424 *204:414 *912:A 0
425 *204:414 *991:A 0
426 *204:419 *246:249 0
427 *204:419 *246:256 0
428 *204:419 *246:265 0
429 *204:432 *246:265 0
430 *204:432 *246:294 0
431 *204:432 *246:298 0
432 *204:439 *246:298 0
433 *204:439 *246:310 0
434 *204:439 *549:31 0
435 *204:450 *758:D_N 0
436 *204:450 *900:A 0
437 *204:450 *901:B1 0
438 *204:450 *540:17 0
439 *204:458 *757:A_N 0
440 *204:458 *758:A 0
441 *204:458 *541:28 0
442 *204:481 *878:A 0
443 *204:481 *904:A 0
444 *204:484 *757:C 0
445 *204:484 *890:A 0
446 *204:508 *878:A 0
447 *204:508 *1015:B 0
448 *204:513 *757:C 0
449 *204:513 *876:A 0
450 *204:529 *1016:A 0
451 *204:529 *539:8 0
452 *204:533 *696:C2 0
453 *204:533 *1017:A 0
454 *204:533 *539:8 0
455 *204:533 *610:20 0
456 *204:533 *610:27 0
457 *204:537 *663:C1 0
458 *204:537 *973:A 0
459 *204:537 *539:32 0
460 *204:537 *610:20 0
461 *204:545 *663:C1 0
462 *204:545 *973:A 0
463 *204:545 *610:20 0
464 *204:554 *971:A 0
465 *204:554 *974:A 0
466 *204:554 *1021:B 0
467 *204:554 *515:21 0
468 *204:554 *526:13 0
469 *204:558 *526:13 0
470 *204:559 *1020:A 0
471 *204:559 *515:21 0
472 *204:559 *517:17 0
473 *204:580 *966:A 0
474 *204:580 *515:21 0
475 *204:624 *663:C1 0
476 *204:624 *686:A1 0
477 *204:624 *539:32 0
478 *204:663 *758:A 0
479 *204:663 *758:B 0
480 *204:663 *894:A 0
481 *204:663 *904:B 0
482 *204:663 *538:20 0
483 *204:663 *541:21 0
484 *204:666 *883:A 0
485 *204:838 *827:A 0
486 *204:838 *828:A 0
487 *204:838 *838:A1 0
488 *204:846 *829:A2 0
489 *204:846 *829:B1 0
490 *204:846 *246:139 0
491 *204:846 *246:141 0
492 *204:875 *845:A 0
493 *204:875 *1051:A 0
494 *204:875 *1051:B 0
495 *204:915 *809:A 0
496 *204:915 *810:A 0
497 *204:917 *809:A 0
498 *204:917 *810:A 0
499 *204:917 *852:A 0
500 *204:917 *853:A 0
501 *204:917 *854:A 0
502 *204:973 *246:83 0
503 *204:973 *246:89 0
504 *204:973 *473:8 0
505 *204:975 *1097:RESET_B 0
506 *204:975 *246:83 0
507 *204:975 *473:8 0
508 *204:986 *1097:RESET_B 0
509 *204:986 *246:80 0
510 *204:986 *246:83 0
511 *204:999 *790:A2 0
512 *204:999 *791:A 0
513 *204:999 *792:A 0
514 *204:999 *246:565 0
515 *204:1010 *792:A 0
516 *204:1010 *246:565 0
517 *204:1010 *246:574 0
518 *204:1023 *778:B1 0
519 *204:1028 *772:A2 0
520 *204:1028 *772:B1 0
521 *204:1056 *778:A2 0
522 *204:1056 *778:B1 0
523 *204:1056 *781:A2 0
524 *204:1056 *246:574 0
525 *204:1056 *246:593 0
526 *204:1056 *246:604 0
527 *204:1056 *246:608 0
528 *204:1066 *781:A2 0
529 *204:1066 *246:617 0
530 *204:1068 *781:A1 0
531 *204:1068 *787:A1 0
532 *680:B *984:B 0
533 *704:A2 *873:B 0
534 *704:A2 *984:B 0
535 *723:A1 *984:B 0
536 *779:B *204:1056 0
537 *812:B *204:83 0
538 *833:B *204:156 0
539 *839:B *840:B 0
540 *842:B *843:B 0
541 *842:B *204:175 0
542 *848:B *1050:B 0
543 *851:B *849:B 0
544 *851:B *204:917 0
545 *878:B *879:B 0
546 *884:B *882:B 0
547 *887:B *888:B 0
548 *890:B *891:B 0
549 *890:B *204:484 0
550 *893:B *894:B 0
551 *893:B *204:666 0
552 *908:B *204:419 0
553 *908:B *204:432 0
554 *935:B *939:B 0
555 *947:B *948:B 0
556 *962:B *960:B 0
557 *962:B *966:B 0
558 *965:B *960:B 0
559 *1007:B *204:63 0
560 *1010:B *984:B 0
561 *1025:B *204:325 0
562 *1040:B *204:267 0
563 *1083:D *204:1010 0
564 *1083:D *204:1023 0
565 *1084:D *204:1056 0
566 *1088:D *783:B 0
567 *1098:D *816:B 0
568 *1098:D *204:88 0
569 *1099:D *819:B 0
570 *1108:D *204:156 0
571 *1110:D *204:917 0
572 *1139:D *993:B 0
573 *1139:D *1032:B 0
574 *1143:D *951:B 0
575 *1145:D *918:B 0
576 *1145:D *204:402 0
577 *1146:D *204:545 0
578 *1154:D *984:B 0
579 *1158:D *996:B 0
580 *1158:D *1002:B 0
581 *1165:D *204:529 0
582 *1174:D *1005:B 0
583 *1174:D *204:224 0
584 *1176:D *204:156 0
585 *1176:D *204:875 0
586 *1177:D *204:1056 0
587 *1177:D *204:1066 0
588 *1178:D *204:11 0
589 *1190:D *204:11 0
590 *10:14 *783:B 0
591 *13:11 *789:B 0
592 *29:8 *204:846 0
593 *30:11 *1005:B 0
594 *30:11 *1047:B 0
595 *30:11 *204:214 0
596 *31:12 *204:195 0
597 *32:10 *204:156 0
598 *64:17 *936:B 0
599 *64:17 *204:267 0
600 *65:14 *930:B 0
601 *65:14 *204:325 0
602 *81:8 *930:B 0
603 *92:10 *1029:B 0
604 *92:10 *204:314 0
605 *92:10 *204:320 0
606 *99:14 *1047:B 0
607 *99:14 *204:224 0
608 *148:21 *873:B 0
609 *197:13 *984:B 0
610 *203:20 *204:38 0
611 *203:25 *204:38 0
612 *203:90 *204:529 0
613 *203:90 *204:533 0
614 *203:90 *204:624 0
615 *203:94 *876:B 0
616 *203:94 *204:529 0
617 *203:98 *204:545 0
618 *203:132 *204:481 0
619 *203:134 *879:B 0
620 *203:134 *204:473 0
621 *203:134 *204:481 0
622 *203:136 *879:B 0
623 *203:203 *906:B 0
624 *203:203 *204:458 0
625 *203:232 *204:398 0
626 *203:271 *204:365 0
627 *203:271 *204:389 0
628 *203:275 *204:356 0
629 *203:287 *948:B 0
630 *203:287 *204:345 0
631 *203:302 *1023:B 0
632 *203:302 *204:325 0
633 *203:307 *204:325 0
634 *203:348 *204:320 0
635 *203:445 *204:414 0
636 *203:445 *204:419 0
637 *203:505 *204:484 0
638 *203:512 *204:484 0
639 *203:596 *996:B 0
640 *203:602 *996:B 0
641 *203:630 *204:224 0
642 *203:641 *204:195 0
643 *203:641 *204:838 0
644 *203:662 *204:838 0
645 *203:685 *204:175 0
646 *203:815 *204:838 0
647 *203:844 *204:237 0
648 *203:860 *204:237 0
649 *203:878 *204:267 0
650 *203:993 *204:1010 0
651 *203:993 *204:1023 0
652 *203:1013 *204:986 0
653 *203:1079 *783:B 0
*RES
1 *725:Y *204:11 33.2286 
2 *204:11 *204:18 8.16964 
3 *204:18 *978:B 30.1482 
4 *204:18 *204:38 13.6875 
5 *204:38 *204:41 14.3393 
6 *204:41 *204:45 8.875 
7 *204:45 *870:B 13.8536 
8 *204:45 *204:63 19.7679 
9 *204:63 *1008:B 10.0321 
10 *204:63 *204:76 22.3929 
11 *204:76 *204:82 14.9107 
12 *204:82 *204:83 9.53571 
13 *204:83 *204:88 7.41071 
14 *204:88 *204:93 25.2143 
15 *204:93 *204:99 16.2321 
16 *204:99 *855:B 17.3179 
17 *204:99 *204:112 4.5 
18 *204:112 *204:115 1.78571 
19 *204:115 *204:119 4.66071 
20 *204:119 *204:123 8.35714 
21 *204:123 *819:B 20.2464 
22 *204:123 *204:135 5.48214 
23 *204:135 *204:139 1.99554 
24 *204:139 *204:151 2.09375 
25 *204:151 *204:156 18.9732 
26 *204:156 *204:166 24.1696 
27 *204:166 *837:B 9.3 
28 *204:166 *204:175 7.85714 
29 *204:175 *204:179 5.44643 
30 *204:179 *840:B 16.9786 
31 *204:179 *204:195 4.52679 
32 *204:195 *204:200 8.1642 
33 *204:200 *1047:B 18.2018 
34 *204:200 *204:214 4.77679 
35 *204:214 *1044:B 9.3 
36 *204:214 *204:224 11.2679 
37 *204:224 *204:229 10.8036 
38 *204:229 *204:231 0.946429 
39 *204:231 *204:235 8.76786 
40 *204:235 *204:237 1.76786 
41 *204:237 *1035:B 10.2643 
42 *204:237 *204:248 7.05357 
43 *204:248 *1041:B 21.4429 
44 *204:248 *204:262 9.98214 
45 *204:262 *204:267 17.9821 
46 *204:267 *204:272 12 
47 *204:272 *939:B 14.5321 
48 *204:272 *204:283 8.125 
49 *204:283 *204:285 4.5 
50 *204:285 *993:B 27.8 
51 *204:285 *1032:B 17.8 
52 *204:283 *204:308 1.78571 
53 *204:308 *204:310 5.46429 
54 *204:310 *204:312 5.46429 
55 *204:312 *204:314 1.76786 
56 *204:314 *204:320 8.07143 
57 *204:320 *204:325 7.19643 
58 *204:325 *204:328 9.96429 
59 *204:328 *204:335 14.3929 
60 *204:335 *924:B 13.8 
61 *204:335 *204:345 9.85714 
62 *204:345 *948:B 12.3179 
63 *204:345 *204:356 7.66071 
64 *204:356 *927:B 13.8 
65 *204:356 *204:365 11.6071 
66 *204:365 *204:366 1.35714 
67 *204:366 *204:370 4.25 
68 *204:370 *951:B 21.6036 
69 *204:370 *957:B 9.72857 
70 *204:366 *204:389 7.35714 
71 *204:389 *954:B 13.8 
72 *204:389 *204:398 5.50821 
73 *204:398 *204:402 6.7542 
74 *204:402 *915:B 13.8 
75 *204:402 *204:409 4.07143 
76 *204:409 *204:414 8.125 
77 *204:414 *204:419 11.1429 
78 *204:419 *909:B 17.7643 
79 *204:419 *204:432 6.80357 
80 *204:432 *963:B 13.8 
81 *204:432 *204:439 12.5714 
82 *204:439 *204:441 4.5 
83 *204:441 *900:B 9.3 
84 *204:441 *204:450 11.9286 
85 *204:450 *906:B 19.3893 
86 *204:450 *204:458 1.64286 
87 *204:458 *204:460 4.5 
88 *204:460 *879:B 12.8268 
89 *204:460 *204:473 1.35714 
90 *204:473 *903:B 9.3 
91 *204:473 *204:481 8.35714 
92 *204:481 *204:484 12.5179 
93 *204:484 *888:B 27.7643 
94 *204:484 *891:B 15.9786 
95 *204:481 *204:508 3.01786 
96 *204:508 *204:513 10.6429 
97 *204:513 *876:B 12.05 
98 *204:513 *204:529 16.0357 
99 *204:529 *204:533 10.0618 
100 *204:533 *204:537 5.43723 
101 *204:537 *204:545 10.3951 
102 *204:545 *204:554 11.5 
103 *204:554 *204:558 7.08929 
104 *204:558 *204:559 3.16071 
105 *204:559 *969:B 15.7464 
106 *204:559 *987:B 18.4607 
107 *204:558 *204:580 11.5 
108 *204:580 *960:B 16.0946 
109 *204:580 *966:B 9.72857 
110 *204:554 *1020:B 9.3 
111 *204:545 *975:B 13.8 
112 *204:537 *972:B 13.8 
113 *204:533 *204:624 25.3792 
114 *204:624 *984:B 36.0679 
115 *204:624 *204:636 2.17857 
116 *204:636 *873:B 22.5143 
117 *204:636 *1011:B 9.3 
118 *204:529 *1017:B 13.8 
119 *204:508 *1014:B 9.3 
120 *204:458 *204:663 12.2143 
121 *204:663 *204:666 4.14286 
122 *204:666 *882:B 19.9786 
123 *204:666 *885:B 19.9429 
124 *204:663 *894:B 9.83571 
125 *204:439 *897:B 16.5857 
126 *204:414 *912:B 9.3 
127 *204:409 *990:B 14.8357 
128 *204:398 *918:B 18.3986 
129 *204:365 *921:B 10.2464 
130 *204:328 *945:B 10.0321 
131 *204:325 *1023:B 16.05 
132 *204:320 *1026:B 10.0321 
133 *204:314 *1029:B 23.9607 
134 *204:312 *942:B 9.72857 
135 *204:310 *930:B 21.6125 
136 *204:308 *933:B 9.72857 
137 *204:267 *936:B 15.4429 
138 *204:262 *1038:B 9.72857 
139 *204:235 *999:B 21.6125 
140 *204:231 *204:804 4.5 
141 *204:804 *996:B 19.3179 
142 *204:804 *1002:B 18.1393 
143 *204:229 *825:B 9.3 
144 *204:224 *1005:B 18.4786 
145 *204:195 *204:838 9.63393 
146 *204:838 *204:846 16.8214 
147 *204:846 *831:B 11.5143 
148 *204:846 *801:B 9.3 
149 *204:838 *828:B 9.3 
150 *204:175 *843:B 9.72857 
151 *204:156 *204:875 6.63393 
152 *204:875 *846:B 10.4161 
153 *204:875 *1050:B 10.675 
154 *204:151 *804:B 9.3 
155 *204:139 *822:B 10.0634 
156 *204:135 *834:B 10.1839 
157 *204:119 *204:915 6.75 
158 *204:915 *204:917 5.28571 
159 *204:917 *849:B 24.8893 
160 *204:917 *852:B 16.4071 
161 *204:915 *810:B 13.8 
162 *204:115 *798:B 9.72857 
163 *204:112 *807:B 9.3 
164 *204:93 *858:B 9.3 
165 *204:88 *816:B 11.3893 
166 *204:83 *861:B 14.3357 
167 *204:82 *204:973 2.70536 
168 *204:973 *204:975 2.70536 
169 *204:975 *864:B 14.3357 
170 *204:975 *204:986 5.21429 
171 *204:986 *789:B 15.5857 
172 *204:986 *204:999 5.51786 
173 *204:999 *792:B 14.7643 
174 *204:999 *204:1010 3.16071 
175 *204:1010 *204:1012 4.5 
176 *204:1012 *729:SLEEP 21.3357 
177 *204:1012 *777:B 9.3 
178 *204:1010 *204:1023 1.64286 
179 *204:1023 *204:1028 7.82143 
180 *204:1028 *771:B 9.3 
181 *204:1028 *774:B 23.0143 
182 *204:1023 *204:1056 11.1071 
183 *204:1056 *1053:B 13.8 
184 *204:1056 *204:1066 9.30357 
185 *204:1066 *204:1068 3.41071 
186 *204:1068 *786:B 11.4964 
187 *204:1068 *783:B 21.4607 
188 *204:1066 *780:B 11.4964 
189 *204:973 *813:B 16.6839 
190 *204:76 *795:B 9.3 
191 *204:41 *867:B 13.8 
192 *204:38 *981:B 9.3 
193 *204:11 *727:B 9.3 
*END

*D_NET *205 0.00107523
*CONN
*I *728:A I *D sky130_fd_sc_hd__nand2_1
*I *726:Y O *D sky130_fd_sc_hd__nand2_1
*CAP
1 *728:A 0.000537614
2 *726:Y 0.000537614
3 *728:A *726:A 0
4 *728:A *1055:A1 0
5 *728:A *1055:A2 0
6 *111:5 *728:A 0
7 *111:20 *728:A 0
8 *203:16 *728:A 0
*RES
1 *726:Y *728:A 48.3679 
*END

*D_NET *206 0.000392853
*CONN
*I *728:B I *D sky130_fd_sc_hd__nand2_1
*I *727:Y O *D sky130_fd_sc_hd__nand2_1
*CAP
1 *728:B 0.000196426
2 *727:Y 0.000196426
3 *728:B *1055:A2 0
4 *203:16 *728:B 0
*RES
1 *727:Y *728:B 31.8321 
*END

*D_NET *207 0.000757685
*CONN
*I *769:B1 I *D sky130_fd_sc_hd__o22a_1
*I *729:X O *D sky130_fd_sc_hd__lpflow_inputiso1p_1
*CAP
1 *769:B1 0.000378843
2 *729:X 0.000378843
3 *769:B1 *753:A 0
4 *769:B1 *499:17 0
5 *1084:D *769:B1 0
6 *1085:D *769:B1 0
7 *203:955 *769:B1 0
*RES
1 *729:X *769:B1 36.0821 
*END

*D_NET *208 0.000224947
*CONN
*I *734:B I *D sky130_fd_sc_hd__or3_1
*I *730:Y O *D sky130_fd_sc_hd__nand2_1
*CAP
1 *734:B 0.000112474
2 *730:Y 0.000112474
3 *734:B *730:A 0
4 *97:10 *734:B 0
*RES
1 *730:Y *734:B 30.1536 
*END

*D_NET *209 0.00060835
*CONN
*I *733:C I *D sky130_fd_sc_hd__nand4_1
*I *731:Y O *D sky130_fd_sc_hd__nor2_1
*CAP
1 *733:C 0.000304175
2 *731:Y 0.000304175
3 *733:C *731:B 0
4 *733:C *733:B 0
5 *733:C *523:11 0
6 *733:C *523:15 0
7 *204:262 *733:C 0
8 *204:267 *733:C 0
*RES
1 *731:Y *733:C 24.8857 
*END

*D_NET *210 0.000858457
*CONN
*I *733:D I *D sky130_fd_sc_hd__nand4_1
*I *732:Y O *D sky130_fd_sc_hd__nor4bb_1
*CAP
1 *733:D 0.000429228
2 *732:Y 0.000429228
3 *733:D *732:B 0
4 *733:D *938:A 0
5 *733:D *470:15 0
6 *733:D *471:15 0
7 *733:D *517:46 0
8 *733:D *520:18 0
9 *203:871 *733:D 0
10 *204:267 *733:D 0
*RES
1 *732:Y *733:D 37.0107 
*END

*D_NET *211 0.000970382
*CONN
*I *734:C I *D sky130_fd_sc_hd__or3_1
*I *733:Y O *D sky130_fd_sc_hd__nand4_1
*CAP
1 *734:C 0.000485191
2 *733:Y 0.000485191
3 *734:C *524:13 0
*RES
1 *733:Y *734:C 37.8857 
*END

*D_NET *212 0.00366242
*CONN
*I *768:A I *D sky130_fd_sc_hd__nor4_1
*I *734:X O *D sky130_fd_sc_hd__or3_1
*CAP
1 *768:A 0.00183121
2 *734:X 0.00183121
3 *768:A *673:B2 0
4 *768:A *673:C1 0
5 *768:A *693:A1 0
6 *768:A *734:A 0
7 *707:A *768:A 0
8 *714:A *768:A 0
9 *97:10 *768:A 0
10 *158:20 *768:A 0
*RES
1 *734:X *768:A 49.0504 
*END

*D_NET *213 0.00068279
*CONN
*I *736:C I *D sky130_fd_sc_hd__nor3_1
*I *735:Y O *D sky130_fd_sc_hd__nand2_1
*CAP
1 *736:C 0.000341395
2 *735:Y 0.000341395
3 *736:C *735:B 0
4 *736:C *736:A 0
5 *736:C *743:A 0
6 *695:B *736:C 0
7 *176:17 *736:C 0
*RES
1 *735:Y *736:C 25.725 
*END

*D_NET *214 0.00145456
*CONN
*I *743:A I *D sky130_fd_sc_hd__nand4_1
*I *736:Y O *D sky130_fd_sc_hd__nor3_1
*CAP
1 *743:A 0.000727282
2 *736:Y 0.000727282
3 *743:A *736:A 0
4 *743:A *743:B 0
5 *743:A *768:B 0
6 *699:A1 *743:A 0
7 *736:C *743:A 0
8 *176:17 *743:A 0
9 *189:22 *743:A 0
*RES
1 *736:Y *743:A 34.1179 
*END

*D_NET *215 0.000578544
*CONN
*I *738:C I *D sky130_fd_sc_hd__nor3_1
*I *737:Y O *D sky130_fd_sc_hd__nand2_1
*CAP
1 *738:C 0.000289272
2 *737:Y 0.000289272
3 *738:C *737:A 0
4 *738:C *738:A 0
5 *738:C *738:B 0
6 *738:C *533:20 0
*RES
1 *737:Y *738:C 33.7964 
*END

*D_NET *216 0.00129041
*CONN
*I *743:B I *D sky130_fd_sc_hd__nand4_1
*I *738:Y O *D sky130_fd_sc_hd__nor3_1
*CAP
1 *743:B 0.000645205
2 *738:Y 0.000645205
3 *743:B *738:A 0
4 *743:B *768:B 0
5 *743:B *245:15 0
6 *743:B *246:12 0
7 *698:A *743:B 0
8 *698:C *743:B 0
9 *743:A *743:B 0
10 *146:16 *743:B 0
*RES
1 *738:Y *743:B 41.5464 
*END

*D_NET *217 0.000255832
*CONN
*I *740:C I *D sky130_fd_sc_hd__nor3_1
*I *739:Y O *D sky130_fd_sc_hd__nand2_1
*CAP
1 *740:C 0.000127916
2 *739:Y 0.000127916
3 *740:C *739:A 0
4 *740:C *739:B 0
5 *740:C *740:A 0
6 *740:C *740:B 0
7 *740:C *508:15 0
*RES
1 *739:Y *740:C 21.2071 
*END

*D_NET *218 0.00252443
*CONN
*I *743:C I *D sky130_fd_sc_hd__nand4_1
*I *740:Y O *D sky130_fd_sc_hd__nor3_1
*CAP
1 *743:C 0
2 *740:Y 0.00126221
3 *218:10 0.00126221
4 *218:10 *706:B2 0
5 *218:10 *1173:RESET_B 0
6 *218:10 *246:12 0
7 *218:10 *508:15 0
8 *218:10 *518:49 0
9 *218:10 *522:8 0
10 *684:A1 *218:10 0
11 *707:D *218:10 0
12 *718:A2 *218:10 0
13 *1160:D *218:10 0
14 *134:101 *218:10 0
15 *139:53 *218:10 0
16 *146:16 *218:10 0
17 *146:21 *218:10 0
*RES
1 *740:Y *218:10 46.7107 
2 *218:10 *743:C 9.3 
*END

*D_NET *219 0.000721691
*CONN
*I *742:C I *D sky130_fd_sc_hd__nor3_1
*I *741:Y O *D sky130_fd_sc_hd__nand2_1
*CAP
1 *742:C 0.000360845
2 *741:Y 0.000360845
3 *742:C *516:38 0
4 *722:B *742:C 0
5 *203:560 *742:C 0
*RES
1 *741:Y *742:C 35.3143 
*END

*D_NET *220 0.00107343
*CONN
*I *743:D I *D sky130_fd_sc_hd__nand4_1
*I *742:Y O *D sky130_fd_sc_hd__nor3_1
*CAP
1 *743:D 0.000536714
2 *742:Y 0.000536714
3 *743:D *684:B1 0
4 *743:D *696:B2 0
5 *743:D *697:B2 0
6 *743:D *246:12 0
7 *684:A1 *743:D 0
*RES
1 *742:Y *743:D 39.5286 
*END

*D_NET *221 0.000255832
*CONN
*I *768:B I *D sky130_fd_sc_hd__nor4_1
*I *743:Y O *D sky130_fd_sc_hd__nand4_1
*CAP
1 *768:B 0.000127916
2 *743:Y 0.000127916
3 *768:B *245:15 0
4 *743:A *768:B 0
5 *743:B *768:B 0
*RES
1 *743:Y *768:B 21.3321 
*END

*D_NET *222 0.0002353
*CONN
*I *749:A I *D sky130_fd_sc_hd__nand3_1
*I *744:X O *D sky130_fd_sc_hd__and4b_1
*CAP
1 *749:A 0.00011765
2 *744:X 0.00011765
3 *749:A *672:A1 0
4 *749:A *732:A 0
5 *749:A *246:177 0
*RES
1 *744:X *749:A 30.1893 
*END

*D_NET *223 0.000681078
*CONN
*I *749:B I *D sky130_fd_sc_hd__nand3_1
*I *745:Y O *D sky130_fd_sc_hd__nor4b_1
*CAP
1 *749:B 0.000340539
2 *745:Y 0.000340539
3 *749:B *732:A 0
4 *749:B *246:177 0
5 *749:B *517:46 0
*RES
1 *745:Y *749:B 25.7071 
*END

*D_NET *224 0.00116611
*CONN
*I *748:C I *D sky130_fd_sc_hd__nor4_1
*I *746:Y O *D sky130_fd_sc_hd__nand2_1
*CAP
1 *748:C 0.000583057
2 *746:Y 0.000583057
3 *748:C *748:A 0
4 *748:C *748:B 0
5 *748:C *748:D 0
6 *748:C *919:A 0
7 *748:C *517:17 0
*RES
1 *746:Y *748:C 40.5464 
*END

*D_NET *225 0.000486572
*CONN
*I *748:D I *D sky130_fd_sc_hd__nor4_1
*I *747:Y O *D sky130_fd_sc_hd__nand4b_1
*CAP
1 *748:D 0.000243286
2 *747:Y 0.000243286
3 *748:D *919:A 0
4 *748:D *919:B 0
5 *748:D *504:15 0
6 *748:C *748:D 0
7 *55:20 *748:D 0
*RES
1 *747:Y *748:D 32.8857 
*END

*D_NET *226 0.0072265
*CONN
*I *749:C I *D sky130_fd_sc_hd__nand3_1
*I *748:Y O *D sky130_fd_sc_hd__nor4_1
*CAP
1 *749:C 0
2 *748:Y 0.00361325
3 *226:24 0.00361325
4 *226:24 *693:A1 0
5 *226:24 *694:B2 0
6 *226:24 *705:B2 0
7 *226:24 *720:C2 0
8 *226:24 *759:A 0
9 *226:24 *227:20 0
10 *226:24 *456:16 0
11 *226:24 *463:21 0
12 *226:24 *464:14 0
13 *226:24 *469:33 0
14 *226:24 *471:15 0
15 *226:24 *518:28 0
16 *226:24 *520:18 0
17 *918:B *226:24 0
18 *54:24 *226:24 0
19 *55:20 *226:24 0
*RES
1 *748:Y *226:24 42.7 
2 *226:24 *749:C 9.3 
*END

*D_NET *227 0.00411615
*CONN
*I *768:C I *D sky130_fd_sc_hd__nor4_1
*I *749:Y O *D sky130_fd_sc_hd__nand3_1
*CAP
1 *768:C 0
2 *749:Y 0.00205808
3 *227:20 0.00205808
4 *227:20 *673:C1 0
5 *227:20 *685:A1 0
6 *227:20 *685:B2 0
7 *227:20 *694:B2 0
8 *227:20 *471:15 0
9 *227:20 *506:47 0
10 *227:20 *507:14 0
11 *227:20 *507:41 0
12 *227:20 *521:21 0
13 *668:C *227:20 0
14 *714:D *227:20 0
15 *146:16 *227:20 0
16 *146:21 *227:20 0
17 *176:17 *227:20 0
18 *226:24 *227:20 0
*RES
1 *749:Y *227:20 44.8888 
2 *227:20 *768:C 9.3 
*END

*D_NET *228 0.000195862
*CONN
*I *751:C I *D sky130_fd_sc_hd__nor3_1
*I *750:Y O *D sky130_fd_sc_hd__nand4_1
*CAP
1 *751:C 9.7931e-05
2 *750:Y 9.7931e-05
3 *751:C *750:B 0
4 *701:B *751:C 0
5 *703:A *751:C 0
*RES
1 *750:Y *751:C 29.7786 
*END

*D_NET *229 0.00139524
*CONN
*I *767:A I *D sky130_fd_sc_hd__nand4_1
*I *751:Y O *D sky130_fd_sc_hd__nor3_1
*CAP
1 *767:A 0.000697621
2 *751:Y 0.000697621
3 *767:A *664:B2 0
4 *767:A *670:A1 0
5 *767:A *751:B 0
6 *767:A *765:C 0
7 *767:A *767:B 0
8 *767:A *1116:CLK 0
9 *767:A *614:17 0
10 *203:25 *767:A 0
*RES
1 *751:Y *767:A 43.2786 
*END

*D_NET *230 0.000249843
*CONN
*I *756:A I *D sky130_fd_sc_hd__nor4_1
*I *752:Y O *D sky130_fd_sc_hd__nand4_1
*CAP
1 *756:A 0.000124921
2 *752:Y 0.000124921
3 *756:A *756:C 0
4 *756:A *1009:B 0
5 *1008:B *756:A 0
*RES
1 *752:Y *756:A 21.2071 
*END

*D_NET *231 0.0019858
*CONN
*I *756:B I *D sky130_fd_sc_hd__nor4_1
*I *753:Y O *D sky130_fd_sc_hd__nand4_1
*CAP
1 *756:B 0.0009929
2 *753:Y 0.0009929
3 *756:B *721:C2 0
4 *756:B *1116:RESET_B 0
5 *756:B *494:9 0
6 *756:B *512:14 0
7 *1083:D *756:B 0
*RES
1 *753:Y *756:B 45.5755 
*END

*D_NET *232 0.000523643
*CONN
*I *756:C I *D sky130_fd_sc_hd__nor4_1
*I *754:Y O *D sky130_fd_sc_hd__nand4_1
*CAP
1 *756:C 0.000261822
2 *754:Y 0.000261822
3 *756:C *651:A 0
4 *756:C *754:C 0
5 *756:C *766:D 0
6 *756:C *1009:B 0
7 *756:A *756:C 0
*RES
1 *754:Y *756:C 24.0643 
*END

*D_NET *233 0.00105025
*CONN
*I *756:D I *D sky130_fd_sc_hd__nor4_1
*I *755:Y O *D sky130_fd_sc_hd__nand4_1
*CAP
1 *756:D 0.000525125
2 *755:Y 0.000525125
3 *756:D *651:A 0
4 *756:D *700:A 0
5 *756:D *752:D 0
6 *756:D *1009:A 0
7 *756:D *1009:B 0
8 *756:D *476:20 0
9 *756:D *502:16 0
10 *1007:B *756:D 0
*RES
1 *755:Y *756:D 39.0464 
*END

*D_NET *234 0.00115932
*CONN
*I *767:B I *D sky130_fd_sc_hd__nand4_1
*I *756:Y O *D sky130_fd_sc_hd__nor4_1
*CAP
1 *767:B 0.00057966
2 *756:Y 0.00057966
3 *767:B *765:C 0
4 *767:B *766:D 0
5 *767:B *502:16 0
6 *767:B *545:10 0
7 *767:B *545:21 0
8 *767:A *767:B 0
9 *1007:B *767:B 0
*RES
1 *756:Y *767:B 40.1 
*END

*D_NET *235 0.000993619
*CONN
*I *761:A I *D sky130_fd_sc_hd__nor4_1
*I *757:Y O *D sky130_fd_sc_hd__nand4b_1
*CAP
1 *761:A 0.000496809
2 *757:Y 0.000496809
3 *761:A *761:B 0
4 *761:A *906:A 0
5 *761:A *976:A1 0
6 *52:12 *761:A 0
7 *203:98 *761:A 0
*RES
1 *757:Y *761:A 47.4214 
*END

*D_NET *236 0.000843057
*CONN
*I *761:B I *D sky130_fd_sc_hd__nor4_1
*I *758:X O *D sky130_fd_sc_hd__or4b_1
*CAP
1 *761:B 0.000421528
2 *758:X 0.000421528
3 *761:B *663:C1 0
4 *761:B *906:A 0
5 *761:B *504:37 0
6 *761:A *761:B 0
7 *906:B *761:B 0
8 *203:203 *761:B 0
9 *203:207 *761:B 0
*RES
1 *758:X *761:B 37.0643 
*END

*D_NET *237 0.00103724
*CONN
*I *761:C I *D sky130_fd_sc_hd__nor4_1
*I *759:X O *D sky130_fd_sc_hd__or4b_1
*CAP
1 *761:C 0.000518622
2 *759:X 0.000518622
3 *761:C *759:A 0
4 *761:C *239:22 0
5 *761:C *504:37 0
6 *203:219 *761:C 0
7 *203:221 *761:C 0
8 *203:223 *761:C 0
*RES
1 *759:X *761:C 39.2964 
*END

*D_NET *238 0.000249843
*CONN
*I *761:D I *D sky130_fd_sc_hd__nor4_1
*I *760:Y O *D sky130_fd_sc_hd__nand4b_1
*CAP
1 *761:D 0.000124921
2 *760:Y 0.000124921
3 *761:D *961:A 0
4 *959:B *761:D 0
*RES
1 *760:Y *761:D 21.2071 
*END

*D_NET *239 0.00912941
*CONN
*I *767:C I *D sky130_fd_sc_hd__nand4_1
*I *761:Y O *D sky130_fd_sc_hd__nor4_1
*CAP
1 *767:C 0
2 *761:Y 0.0045647
3 *239:22 0.0045647
4 *239:22 uo_out[0] 0
5 *239:22 uo_out[1] 0
6 *239:22 *663:C1 0
7 *239:22 *670:A1 0
8 *239:22 *670:B2 0
9 *239:22 *872:A 0
10 *239:22 *906:A 0
11 *239:22 *1012:A1 0
12 *239:22 *1019:A 0
13 *239:22 *246:31 0
14 *239:22 *504:37 0
15 *239:22 *516:38 0
16 *239:22 *529:12 0
17 *239:22 *542:43 0
18 *239:22 *543:21 0
19 *239:22 *545:25 0
20 *239:22 *607:11 0
21 *239:22 *607:54 0
22 *722:A *239:22 0
23 *761:C *239:22 0
24 *1146:D *239:22 0
25 *1147:D *239:22 0
*RES
1 *761:Y *239:22 46.5146 
2 *239:22 *767:C 13.8 
*END

*D_NET *240 0.00404771
*CONN
*I *766:A I *D sky130_fd_sc_hd__nor4_1
*I *762:Y O *D sky130_fd_sc_hd__nand4b_1
*CAP
1 *766:A 0.000491598
2 *762:Y 0.00153225
3 *240:6 0.00202385
4 *766:A *681:A1 0
5 *766:A *766:C 0
6 *766:A *485:32 0
7 *766:A *503:29 0
8 *240:6 *666:A1 0
9 *240:6 *803:A 0
10 *240:6 *835:A1 0
11 *240:6 *847:A1 0
12 *240:6 *1007:A 0
13 *240:6 *1008:A 0
14 *240:6 *1094:CLK 0
15 *240:6 *1108:CLK 0
16 *240:6 *1161:RESET_B 0
17 *240:6 *1162:CLK 0
18 *240:6 *246:493 0
19 *240:6 *475:35 0
20 *240:6 *488:12 0
21 *240:6 *511:9 0
22 *240:6 *512:8 0
23 *240:6 *613:12 0
24 *1007:B *240:6 0
25 *1094:D *240:6 0
26 *1108:D *240:6 0
*RES
1 *762:Y *240:6 48.5321 
2 *240:6 *766:A 33.1929 
*END

*D_NET *241 0.00337252
*CONN
*I *766:B I *D sky130_fd_sc_hd__nor4_1
*I *763:Y O *D sky130_fd_sc_hd__nand4b_1
*CAP
1 *766:B 0.000183104
2 *763:Y 0.00150315
3 *241:8 0.00168626
4 *766:B *702:C1 0
5 *766:B *754:D 0
6 *241:8 *677:A 0
7 *241:8 *720:A1 0
8 *241:8 *763:D 0
9 *241:8 *764:C 0
10 *241:8 *764:D 0
11 *241:8 *832:A2 0
12 *241:8 *1158:RESET_B 0
13 *241:8 *245:15 0
14 *241:8 *455:627 0
15 *241:8 *485:12 0
16 *241:8 *485:32 0
17 *241:8 *489:9 0
18 *683:A *241:8 0
19 *700:B *241:8 0
20 *1102:D *241:8 0
21 *137:44 *241:8 0
*RES
1 *763:Y *241:8 47.7464 
2 *241:8 *766:B 17.6214 
*END

*D_NET *242 0.000435149
*CONN
*I *766:C I *D sky130_fd_sc_hd__nor4_1
*I *764:X O *D sky130_fd_sc_hd__or4_1
*CAP
1 *766:C 0.000217575
2 *764:X 0.000217575
3 *766:C *692:A 0
4 *766:C *697:A1 0
5 *766:C *485:32 0
6 *766:A *766:C 0
*RES
1 *764:X *766:C 32.4214 
*END

*D_NET *243 0.00122894
*CONN
*I *766:D I *D sky130_fd_sc_hd__nor4_1
*I *765:X O *D sky130_fd_sc_hd__or4b_1
*CAP
1 *766:D 0.000614472
2 *765:X 0.000614472
3 *766:D *651:A 0
4 *766:D *689:A1 0
5 *766:D *754:B 0
6 *766:D *754:D 0
7 *766:D *765:B 0
8 *766:D *767:D 0
9 *766:D *473:41 0
10 *766:D *474:33 0
11 *766:D *502:16 0
12 *766:D *545:21 0
13 *766:D *545:25 0
14 *756:C *766:D 0
15 *767:B *766:D 0
*RES
1 *765:X *766:D 40.6714 
*END

*D_NET *244 0.0004365
*CONN
*I *767:D I *D sky130_fd_sc_hd__nand4_1
*I *766:Y O *D sky130_fd_sc_hd__nor4_1
*CAP
1 *767:D 0.00021825
2 *766:Y 0.00021825
3 *767:D *754:A 0
4 *767:D *764:D 0
5 *689:A2 *767:D 0
6 *766:D *767:D 0
*RES
1 *766:Y *767:D 32.5107 
*END

*D_NET *245 0.00273399
*CONN
*I *768:D I *D sky130_fd_sc_hd__nor4_1
*I *767:Y O *D sky130_fd_sc_hd__nand4_1
*CAP
1 *768:D 0
2 *767:Y 0.001367
3 *245:15 0.001367
4 *245:15 *673:C1 0
5 *245:15 *681:C2 0
6 *245:15 *692:A 0
7 *245:15 *702:C1 0
8 *245:15 *720:A1 0
9 *245:15 *764:D 0
10 *245:15 *765:C 0
11 *689:B1 *245:15 0
12 *698:A *245:15 0
13 *713:A2 *245:15 0
14 *743:B *245:15 0
15 *768:B *245:15 0
16 *146:99 *245:15 0
17 *241:8 *245:15 0
*RES
1 *767:Y *245:15 47.6393 
2 *245:15 *768:D 9.3 
*END

*D_NET *246 0.0552696
*CONN
*I *769:B2 I *D sky130_fd_sc_hd__o22a_1
*I *781:A1 I *D sky130_fd_sc_hd__o21ai_0
*I *784:A1 I *D sky130_fd_sc_hd__o21ai_0
*I *787:A1 I *D sky130_fd_sc_hd__o21ai_0
*I *1054:A1 I *D sky130_fd_sc_hd__o21ai_0
*I *775:A1 I *D sky130_fd_sc_hd__o21ai_0
*I *778:A1 I *D sky130_fd_sc_hd__o21ai_0
*I *772:A1 I *D sky130_fd_sc_hd__o21ai_0
*I *793:A1 I *D sky130_fd_sc_hd__o21ai_0
*I *790:A1 I *D sky130_fd_sc_hd__o21ai_0
*I *865:A1 I *D sky130_fd_sc_hd__o21ai_0
*I *814:A1 I *D sky130_fd_sc_hd__o21ai_0
*I *817:A1 I *D sky130_fd_sc_hd__o21ai_0
*I *799:A1 I *D sky130_fd_sc_hd__o21ai_0
*I *820:A1 I *D sky130_fd_sc_hd__o21ai_0
*I *850:A1 I *D sky130_fd_sc_hd__o21ai_0
*I *823:A1 I *D sky130_fd_sc_hd__o21ai_0
*I *835:A1 I *D sky130_fd_sc_hd__o21ai_0
*I *805:A1 I *D sky130_fd_sc_hd__o21ai_0
*I *847:A1 I *D sky130_fd_sc_hd__o21ai_0
*I *802:A1 I *D sky130_fd_sc_hd__o21ai_0
*I *832:A1 I *D sky130_fd_sc_hd__o21ai_0
*I *838:A1 I *D sky130_fd_sc_hd__o21ai_0
*I *829:A1 I *D sky130_fd_sc_hd__o21ai_0
*I *1048:A1 I *D sky130_fd_sc_hd__o21ai_0
*I *841:A1 I *D sky130_fd_sc_hd__o21ai_0
*I *1006:A1 I *D sky130_fd_sc_hd__o21ai_0
*I *826:A1 I *D sky130_fd_sc_hd__o21ai_0
*I *1036:A1 I *D sky130_fd_sc_hd__o21ai_0
*I *1000:A1 I *D sky130_fd_sc_hd__o21ai_0
*I *937:A1 I *D sky130_fd_sc_hd__o21ai_0
*I *940:A1 I *D sky130_fd_sc_hd__o21ai_0
*I *994:A1 I *D sky130_fd_sc_hd__o21ai_0
*I *1030:A1 I *D sky130_fd_sc_hd__o21ai_0
*I *1024:A1 I *D sky130_fd_sc_hd__o21ai_0
*I *925:A1 I *D sky130_fd_sc_hd__o21ai_0
*I *964:A1 I *D sky130_fd_sc_hd__o21ai_0
*I *1018:A1 I *D sky130_fd_sc_hd__o21ai_0
*I *892:A1 I *D sky130_fd_sc_hd__o21ai_0
*I *886:A1 I *D sky130_fd_sc_hd__o21ai_0
*I *889:A1 I *D sky130_fd_sc_hd__o21ai_0
*I *877:A1 I *D sky130_fd_sc_hd__o21ai_0
*I *976:A1 I *D sky130_fd_sc_hd__o21ai_0
*I *901:A1 I *D sky130_fd_sc_hd__o21ai_0
*I *907:A1 I *D sky130_fd_sc_hd__o21ai_0
*I *988:A1 I *D sky130_fd_sc_hd__o21ai_0
*I *970:A1 I *D sky130_fd_sc_hd__o21ai_0
*I *910:A1 I *D sky130_fd_sc_hd__o21ai_0
*I *913:A1 I *D sky130_fd_sc_hd__o21ai_0
*I *955:A1 I *D sky130_fd_sc_hd__o21ai_0
*I *958:A1 I *D sky130_fd_sc_hd__o21ai_0
*I *949:A1 I *D sky130_fd_sc_hd__o21ai_0
*I *934:A1 I *D sky130_fd_sc_hd__o21ai_0
*I *1042:A1 I *D sky130_fd_sc_hd__o21ai_0
*I *811:A1 I *D sky130_fd_sc_hd__o21ai_0
*I *808:A1 I *D sky130_fd_sc_hd__o21ai_0
*I *796:A1 I *D sky130_fd_sc_hd__o21ai_0
*I *1055:A2 I *D sky130_fd_sc_hd__a21o_1
*I *982:A1 I *D sky130_fd_sc_hd__o21ai_0
*I *1012:A1 I *D sky130_fd_sc_hd__o21ai_0
*I *768:Y O *D sky130_fd_sc_hd__nor4_1
*CAP
1 *769:B2 0.000555878
2 *781:A1 4.83429e-05
3 *784:A1 8.29787e-05
4 *787:A1 0.000370227
5 *1054:A1 4.53482e-05
6 *775:A1 6.58832e-05
7 *778:A1 6.43859e-05
8 *772:A1 4.38508e-05
9 *793:A1 4.53482e-05
10 *790:A1 0
11 *865:A1 4.38508e-05
12 *814:A1 0
13 *817:A1 0
14 *799:A1 0
15 *820:A1 4.53482e-05
16 *850:A1 0.000443602
17 *823:A1 3.22476e-05
18 *835:A1 0.000174748
19 *805:A1 0
20 *847:A1 0.000488482
21 *802:A1 0.00013537
22 *832:A1 0
23 *838:A1 0.000578367
24 *829:A1 2.0535e-05
25 *1048:A1 0
26 *841:A1 0.00029833
27 *1006:A1 0.000233767
28 *826:A1 0
29 *1036:A1 0.000128558
30 *1000:A1 0
31 *937:A1 0
32 *940:A1 0
33 *994:A1 0
34 *1030:A1 3.50807e-05
35 *1024:A1 3.50807e-05
36 *925:A1 0
37 *964:A1 0
38 *1018:A1 0.000745111
39 *892:A1 0
40 *886:A1 0.000686212
41 *889:A1 0.000124066
42 *877:A1 0
43 *976:A1 0.000330097
44 *901:A1 0
45 *907:A1 0.000143745
46 *988:A1 0
47 *970:A1 0.000128558
48 *910:A1 4.53482e-05
49 *913:A1 0
50 *955:A1 2.55622e-05
51 *958:A1 0
52 *949:A1 2.56688e-05
53 *934:A1 0.000373432
54 *1042:A1 0.000542005
55 *811:A1 0.000109254
56 *808:A1 4.53482e-05
57 *796:A1 7.5509e-05
58 *1055:A2 0.000627113
59 *982:A1 0
60 *1012:A1 0.000787243
61 *768:Y 0.000586239
62 *246:621 0.000509049
63 *246:617 0.000304731
64 *246:608 0.000480868
65 *246:604 0.00093528
66 *246:593 0.000318221
67 *246:576 0.000108237
68 *246:574 0.0003246
69 *246:565 0.000517068
70 *246:556 0.000291192
71 *246:518 0.000531776
72 *246:493 0.000257727
73 *246:483 0.00057146
74 *246:467 0.000218348
75 *246:457 0.000661345
76 *246:435 0.000638051
77 *246:348 0.000822222
78 *246:335 0.000690543
79 *246:328 0.000545654
80 *246:318 0.000445284
81 *246:316 0.00133849
82 *246:310 0.000728766
83 *246:298 0.000620095
84 *246:294 0.000648079
85 *246:274 0.000567708
86 *246:265 0.000791849
87 *246:256 0.000200609
88 *246:249 0.000627217
89 *246:240 0.000627059
90 *246:231 0.000523985
91 *246:222 0.00089123
92 *246:217 0.00109122
93 *246:213 0.000979264
94 *246:211 0.000792394
95 *246:189 0.00111171
96 *246:186 0.000922653
97 *246:181 0.000842838
98 *246:177 0.00115162
99 *246:167 0.00113001
100 *246:155 0.00132103
101 *246:150 0.000749528
102 *246:148 0.000541941
103 *246:143 0.000906723
104 *246:141 0.000479151
105 *246:139 0.000776481
106 *246:137 0.000755304
107 *246:135 0.000491719
108 *246:131 0.000664225
109 *246:113 0.000555469
110 *246:100 0.000331134
111 *246:99 0.00139967
112 *246:89 0.00169735
113 *246:83 0.000707777
114 *246:80 0.000500203
115 *246:74 0.000952079
116 *246:58 0.0015068
117 *246:34 0.00133674
118 *246:31 0.00274981
119 *246:12 0.00267192
120 *769:B2 *1052:A 0
121 *769:B2 *499:17 0
122 *772:A1 *772:A2 0
123 *775:A1 *776:A 0
124 *778:A1 *772:A2 0
125 *778:A1 *772:B1 0
126 *784:A1 *780:A 0
127 *787:A1 *786:A 0
128 *787:A1 *787:B1 0
129 *787:A1 *499:17 0
130 *787:A1 *501:7 0
131 *802:A1 *828:A 0
132 *802:A1 *485:12 0
133 *808:A1 *808:A2 0
134 *811:A1 *811:A2 0
135 *823:A1 *487:15 0
136 *835:A1 *833:A 0
137 *838:A1 *828:A 0
138 *838:A1 *838:A2 0
139 *838:A1 *1049:A 0
140 *841:A1 *527:26 0
141 *847:A1 *1049:A 0
142 *847:A1 *1051:A 0
143 *847:A1 *488:12 0
144 *847:A1 *491:39 0
145 *850:A1 *528:11 0
146 *865:A1 *864:A 0
147 *865:A1 *865:B1 0
148 *886:A1 *885:A 0
149 *886:A1 *886:A2 0
150 *886:A1 *886:B1 0
151 *886:A1 *892:A2 0
152 *907:A1 *760:B 0
153 *934:A1 *934:B1 0
154 *949:A1 *950:A 0
155 *955:A1 *955:B1 0
156 *955:A1 *956:A 0
157 *970:A1 *970:A2 0
158 *970:A1 *988:A2 0
159 *976:A1 *549:12 0
160 *1006:A1 *1002:A 0
161 *1006:A1 *510:18 0
162 *1012:A1 uo_out[1] 0
163 *1012:A1 uo_out[3] 0
164 *1012:A1 *663:C1 0
165 *1012:A1 *696:C2 0
166 *1012:A1 *1012:A2 0
167 *1012:A1 *1012:B1 0
168 *1012:A1 *607:11 0
169 *1018:A1 *610:27 0
170 *1024:A1 *1024:A2 0
171 *1036:A1 *1000:A2 0
172 *1036:A1 *1000:B1 0
173 *1036:A1 *509:11 0
174 *1042:A1 *733:B 0
175 *1042:A1 *1039:B 0
176 *1042:A1 *1040:A 0
177 *1042:A1 *1042:A2 0
178 *1042:A1 *523:11 0
179 *1054:A1 *1053:A 0
180 *246:31 uo_out[0] 0
181 *246:31 *663:C1 0
182 *246:31 *670:B2 0
183 *246:31 *721:C2 0
184 *246:31 *536:11 0
185 *246:31 *543:21 0
186 *246:31 *547:47 0
187 *246:34 *765:B 0
188 *246:34 *982:B1 0
189 *246:34 *534:8 0
190 *246:58 *721:C2 0
191 *246:58 *794:A 0
192 *246:58 *502:16 0
193 *246:58 *503:20 0
194 *246:58 *536:11 0
195 *246:74 *863:A 0
196 *246:74 *1090:CLK 0
197 *246:74 *502:36 0
198 *246:74 *503:20 0
199 *246:74 *536:11 0
200 *246:80 *864:A 0
201 *246:80 *865:B1 0
202 *246:80 *1097:RESET_B 0
203 *246:80 *455:430 0
204 *246:83 *814:A2 0
205 *246:83 *814:B1 0
206 *246:83 *815:A 0
207 *246:89 *812:A 0
208 *246:89 *814:A2 0
209 *246:89 *815:A 0
210 *246:89 *817:A2 0
211 *246:89 *862:B 0
212 *246:99 *797:A 0
213 *246:99 *798:A 0
214 *246:99 *810:A 0
215 *246:99 *859:B 0
216 *246:99 *477:33 0
217 *246:99 *478:18 0
218 *246:99 *495:11 0
219 *246:99 *496:8 0
220 *246:100 *799:A2 0
221 *246:113 *806:A 0
222 *246:113 *808:A2 0
223 *246:113 *808:B1 0
224 *246:113 *809:A 0
225 *246:135 *823:A2 0
226 *246:137 *823:A2 0
227 *246:139 *762:B 0
228 *246:139 *490:12 0
229 *246:141 *827:A 0
230 *246:141 *829:A2 0
231 *246:141 *829:B1 0
232 *246:148 *826:B1 0
233 *246:155 *1000:A2 0
234 *246:155 *1000:B1 0
235 *246:155 *1003:A 0
236 *246:155 *1003:B 0
237 *246:155 *509:11 0
238 *246:155 *509:19 0
239 *246:177 *732:A 0
240 *246:177 *517:46 0
241 *246:181 *933:A 0
242 *246:189 *994:A2 0
243 *246:189 *994:B1 0
244 *246:211 *929:A 0
245 *246:211 *1026:A 0
246 *246:211 *1029:A 0
247 *246:211 *1030:A2 0
248 *246:213 *1024:A2 0
249 *246:213 *1024:B1 0
250 *246:213 *1026:A 0
251 *246:213 *517:17 0
252 *246:217 *923:A 0
253 *246:217 *925:A2 0
254 *246:217 *925:B1 0
255 *246:217 *517:17 0
256 *246:222 *947:A 0
257 *246:222 *949:A2 0
258 *246:231 *759:C 0
259 *246:231 *947:A 0
260 *246:231 *952:A 0
261 *246:231 *952:B 0
262 *246:240 *759:C 0
263 *246:249 *759:C 0
264 *246:249 *914:A 0
265 *246:249 *955:A2 0
266 *246:249 *956:A 0
267 *246:249 *463:24 0
268 *246:256 *463:24 0
269 *246:274 *909:A 0
270 *246:274 *970:A2 0
271 *246:294 *760:A_N 0
272 *246:298 *760:A_N 0
273 *246:298 *760:D 0
274 *246:298 *542:43 0
275 *246:310 *539:42 0
276 *246:310 *549:31 0
277 *246:316 *901:A2 0
278 *246:328 *540:14 0
279 *246:335 *902:A 0
280 *246:335 *904:A 0
281 *246:348 *893:A 0
282 *246:435 *734:A 0
283 *246:467 *828:A 0
284 *246:518 *528:11 0
285 *246:565 *790:A2 0
286 *246:565 *793:A2 0
287 *246:565 *455:428 0
288 *246:565 *455:430 0
289 *246:593 *498:13 0
290 *246:604 *497:43 0
291 *246:604 *498:13 0
292 *246:608 *1054:A2 0
293 *246:617 *781:A2 0
294 *246:621 *780:A 0
295 *698:B *246:12 0
296 *699:A2 *246:12 0
297 *728:A *1055:A2 0
298 *728:B *1055:A2 0
299 *743:B *246:12 0
300 *743:D *246:12 0
301 *749:A *246:177 0
302 *749:B *246:177 0
303 *761:A *976:A1 0
304 *780:B *781:A1 0
305 *786:B *787:A1 0
306 *794:B *796:A1 0
307 *794:B *246:58 0
308 *797:B *246:99 0
309 *813:B *246:83 0
310 *833:B *823:A1 0
311 *848:B *850:A1 0
312 *887:B *889:A1 0
313 *890:B *246:348 0
314 *909:B *910:A1 0
315 *909:B *246:274 0
316 *914:B *246:249 0
317 *935:B *246:181 0
318 *939:B *246:181 0
319 *939:B *246:186 0
320 *968:B *246:274 0
321 *993:B *246:181 0
322 *993:B *246:186 0
323 *1002:B *246:148 0
324 *1002:B *246:155 0
325 *1029:B *246:211 0
326 *1041:B *1042:A1 0
327 *1083:D *246:574 0
328 *1084:D *769:B2 0
329 *1085:D *772:A1 0
330 *1085:D *778:A1 0
331 *1088:D *787:A1 0
332 *1090:D *793:A1 0
333 *1094:D *835:A1 0
334 *1096:D *811:A1 0
335 *1097:D *246:83 0
336 *1100:D *820:A1 0
337 *1103:D *802:A1 0
338 *1108:D *835:A1 0
339 *1108:D *847:A1 0
340 *1108:D *246:493 0
341 *1111:D *246:99 0
342 *1113:D *246:89 0
343 *1114:D *246:83 0
344 *1116:D *246:34 0
345 *1118:D *246:328 0
346 *1123:D *246:348 0
347 *1136:D *246:177 0
348 *1138:D *246:177 0
349 *1139:D *246:177 0
350 *1139:D *246:181 0
351 *1142:D *246:231 0
352 *1143:D *246:231 0
353 *1158:D *1006:A1 0
354 *1158:D *246:148 0
355 *1159:D *1036:A1 0
356 *1159:D *246:155 0
357 *1170:D *246:177 0
358 *1171:D *1036:A1 0
359 *1172:D *1042:A1 0
360 *1172:D *246:167 0
361 *1176:D *850:A1 0
362 *1177:D *769:B2 0
363 *1177:D *1055:A2 0
364 *1177:D *246:608 0
365 *10:14 *784:A1 0
366 *16:11 *808:A1 0
367 *16:11 *246:100 0
368 *30:11 *841:A1 0
369 *30:11 *246:435 0
370 *31:12 *802:A1 0
371 *31:12 *838:A1 0
372 *31:12 *246:467 0
373 *32:10 *847:A1 0
374 *33:11 *850:A1 0
375 *50:9 *1018:A1 0
376 *50:9 *246:316 0
377 *52:12 *976:A1 0
378 *64:17 *246:186 0
379 *81:8 *934:A1 0
380 *81:8 *246:186 0
381 *92:10 *246:189 0
382 *92:10 *246:211 0
383 *93:13 *246:211 0
384 *99:14 *246:435 0
385 *146:16 *246:12 0
386 *146:16 *246:31 0
387 *147:14 *246:12 0
388 *147:25 *246:12 0
389 *203:16 *1055:A2 0
390 *203:18 *1055:A2 0
391 *203:20 *1055:A2 0
392 *203:25 *246:34 0
393 *203:90 *1018:A1 0
394 *203:98 *976:A1 0
395 *203:98 *246:328 0
396 *203:122 *246:328 0
397 *203:122 *246:335 0
398 *203:129 *246:335 0
399 *203:332 *246:189 0
400 *203:348 *246:211 0
401 *203:505 *246:335 0
402 *203:512 *246:335 0
403 *203:512 *246:348 0
404 *203:685 *847:A1 0
405 *203:718 *246:137 0
406 *203:718 *246:139 0
407 *203:726 *246:137 0
408 *203:738 *246:135 0
409 *203:746 *820:A1 0
410 *203:746 *246:131 0
411 *203:746 *246:135 0
412 *203:756 *811:A1 0
413 *203:756 *246:131 0
414 *203:976 *246:604 0
415 *203:1013 *246:83 0
416 *203:1017 *246:83 0
417 *203:1079 *784:A1 0
418 *203:1079 *246:608 0
419 *203:1079 *246:617 0
420 *203:1079 *246:621 0
421 *204:41 *246:34 0
422 *204:83 *246:89 0
423 *204:93 *246:99 0
424 *204:119 *246:100 0
425 *204:123 *808:A1 0
426 *204:123 *246:100 0
427 *204:156 *847:A1 0
428 *204:195 *838:A1 0
429 *204:224 *246:435 0
430 *204:229 *246:148 0
431 *204:248 *1042:A1 0
432 *204:283 *246:181 0
433 *204:310 *934:A1 0
434 *204:312 *934:A1 0
435 *204:356 *246:222 0
436 *204:419 *246:249 0
437 *204:419 *246:256 0
438 *204:419 *246:265 0
439 *204:432 *246:265 0
440 *204:432 *246:294 0
441 *204:432 *246:298 0
442 *204:439 *246:298 0
443 *204:439 *246:310 0
444 *204:838 *838:A1 0
445 *204:846 *246:139 0
446 *204:846 *246:141 0
447 *204:973 *246:83 0
448 *204:973 *246:89 0
449 *204:975 *246:83 0
450 *204:986 *246:80 0
451 *204:986 *246:83 0
452 *204:999 *246:565 0
453 *204:1010 *246:565 0
454 *204:1010 *246:574 0
455 *204:1056 *246:574 0
456 *204:1056 *246:593 0
457 *204:1056 *246:604 0
458 *204:1056 *246:608 0
459 *204:1066 *246:617 0
460 *204:1068 *781:A1 0
461 *204:1068 *787:A1 0
462 *218:10 *246:12 0
463 *239:22 *1012:A1 0
464 *239:22 *246:31 0
465 *240:6 *835:A1 0
466 *240:6 *847:A1 0
467 *240:6 *246:493 0
*RES
1 *768:Y *246:12 30.5939 
2 *246:12 *1012:A1 21.4311 
3 *246:12 *246:31 4.75013 
4 *246:31 *246:34 19.4725 
5 *246:34 *982:A1 13.8 
6 *246:34 *1055:A2 27.675 
7 *246:31 *246:58 13.2886 
8 *246:58 *796:A1 10.9786 
9 *246:58 *246:74 16.8568 
10 *246:74 *246:80 9.49107 
11 *246:80 *246:83 9.78571 
12 *246:83 *246:89 10.9107 
13 *246:89 *246:99 41.1071 
14 *246:99 *246:100 3.82143 
15 *246:100 *808:A1 10.2464 
16 *246:100 *246:113 6.95536 
17 *246:113 *811:A1 16.2911 
18 *246:113 *246:131 11.6071 
19 *246:131 *246:135 5.89286 
20 *246:135 *246:137 3.82143 
21 *246:137 *246:139 12.0357 
22 *246:139 *246:141 4.23214 
23 *246:141 *246:143 5.46429 
24 *246:143 *246:148 11.0893 
25 *246:148 *246:150 4.5 
26 *246:150 *246:155 20.1429 
27 *246:155 *1042:A1 25.9964 
28 *246:155 *246:167 5.23214 
29 *246:167 *246:177 29.5893 
30 *246:177 *246:181 8.51786 
31 *246:181 *246:186 18.5714 
32 *246:186 *246:189 10.3929 
33 *246:189 *934:A1 30.7107 
34 *246:189 *246:211 14.6964 
35 *246:211 *246:213 5.875 
36 *246:213 *246:217 13.8929 
37 *246:217 *246:222 13.8214 
38 *246:222 *949:A1 14.3357 
39 *246:222 *246:231 10.1429 
40 *246:231 *958:A1 13.8 
41 *246:231 *246:240 2.04464 
42 *246:240 *955:A1 14.3804 
43 *246:240 *246:249 11.8125 
44 *246:249 *913:A1 13.8 
45 *246:249 *246:256 2.55357 
46 *246:256 *910:A1 14.7464 
47 *246:256 *246:265 1.03571 
48 *246:265 *246:274 13.8214 
49 *246:274 *970:A1 12.2286 
50 *246:274 *988:A1 9.3 
51 *246:265 *246:294 7.16071 
52 *246:294 *246:298 7.94643 
53 *246:298 *907:A1 16.8 
54 *246:298 *246:310 7.58929 
55 *246:310 *901:A1 9.3 
56 *246:310 *246:316 12.4464 
57 *246:316 *246:318 4.5 
58 *246:318 *976:A1 21.0679 
59 *246:318 *246:328 2.55357 
60 *246:328 *877:A1 13.8 
61 *246:328 *246:335 9.83929 
62 *246:335 *889:A1 16.3893 
63 *246:335 *246:348 7.58929 
64 *246:348 *886:A1 23.6214 
65 *246:348 *892:A1 9.3 
66 *246:316 *1018:A1 34.1214 
67 *246:294 *964:A1 13.8 
68 *246:217 *925:A1 9.3 
69 *246:213 *1024:A1 10.0321 
70 *246:211 *1030:A1 10.0321 
71 *246:186 *994:A1 9.3 
72 *246:181 *940:A1 13.8 
73 *246:177 *937:A1 9.3 
74 *246:167 *1000:A1 9.3 
75 *246:167 *1036:A1 12.2286 
76 *246:150 *826:A1 9.3 
77 *246:148 *1006:A1 18.9429 
78 *246:143 *246:435 12.2143 
79 *246:435 *841:A1 20.175 
80 *246:435 *1048:A1 13.8 
81 *246:141 *829:A1 9.72857 
82 *246:139 *246:457 4.5 
83 *246:457 *838:A1 26.4607 
84 *246:457 *246:467 1.94643 
85 *246:467 *832:A1 13.8 
86 *246:467 *802:A1 16.8893 
87 *246:137 *246:483 4.5 
88 *246:483 *847:A1 24.7821 
89 *246:483 *246:493 1.94643 
90 *246:493 *805:A1 13.8 
91 *246:493 *835:A1 17.7107 
92 *246:135 *823:A1 19.0321 
93 *246:131 *246:518 5.53571 
94 *246:518 *850:A1 23.8714 
95 *246:518 *820:A1 14.7464 
96 *246:99 *799:A1 9.3 
97 *246:89 *817:A1 13.8 
98 *246:83 *814:A1 13.8 
99 *246:80 *865:A1 10.2464 
100 *246:74 *246:556 0.883929 
101 *246:556 *790:A1 13.8 
102 *246:556 *246:565 5.82143 
103 *246:565 *793:A1 14.7464 
104 *246:565 *246:574 4.98214 
105 *246:574 *246:576 4.5 
106 *246:576 *772:A1 10.2464 
107 *246:576 *778:A1 10.675 
108 *246:574 *246:593 2.48214 
109 *246:593 *775:A1 15.175 
110 *246:593 *246:604 3.3125 
111 *246:604 *246:608 5.36607 
112 *246:608 *1054:A1 14.7464 
113 *246:608 *246:617 4.67857 
114 *246:617 *246:621 1.26786 
115 *246:621 *787:A1 30.6214 
116 *246:621 *784:A1 15.7464 
117 *246:617 *781:A1 14.7464 
118 *246:604 *769:B2 23.1211 
*END

*D_NET *247 0.000367919
*CONN
*I *772:A2 I *D sky130_fd_sc_hd__o21ai_0
*I *770:Y O *D sky130_fd_sc_hd__nand2_1
*CAP
1 *772:A2 0.00018396
2 *770:Y 0.00018396
3 *772:A2 *772:B1 0
4 *772:A1 *772:A2 0
5 *778:A1 *772:A2 0
6 *204:1028 *772:A2 0
*RES
1 *770:Y *772:A2 22.4393 
*END

*D_NET *248 0.000407278
*CONN
*I *772:B1 I *D sky130_fd_sc_hd__o21ai_0
*I *771:Y O *D sky130_fd_sc_hd__nand2_1
*CAP
1 *772:B1 0.000203639
2 *771:Y 0.000203639
3 *772:A2 *772:B1 0
4 *774:B *772:B1 0
5 *778:A1 *772:B1 0
6 *1085:D *772:B1 0
7 *204:1028 *772:B1 0
*RES
1 *771:Y *772:B1 22.85 
*END

*D_NET *249 0.000210484
*CONN
*I *775:A2 I *D sky130_fd_sc_hd__o21ai_0
*I *773:Y O *D sky130_fd_sc_hd__nand2_1
*CAP
1 *775:A2 0.000105242
2 *773:Y 0.000105242
3 *775:A2 *775:B1 0
*RES
1 *773:Y *775:A2 20.7964 
*END

*D_NET *250 0.000276367
*CONN
*I *775:B1 I *D sky130_fd_sc_hd__o21ai_0
*I *774:Y O *D sky130_fd_sc_hd__nand2_1
*CAP
1 *775:B1 0.000138184
2 *774:Y 0.000138184
3 *775:A2 *775:B1 0
*RES
1 *774:Y *775:B1 21.7607 
*END

*D_NET *251 0.000274698
*CONN
*I *778:A2 I *D sky130_fd_sc_hd__o21ai_0
*I *776:Y O *D sky130_fd_sc_hd__nand2_1
*CAP
1 *778:A2 0.000137349
2 *776:Y 0.000137349
3 *203:989 *778:A2 0
4 *204:1056 *778:A2 0
*RES
1 *776:Y *778:A2 30.6 
*END

*D_NET *252 0.000176851
*CONN
*I *778:B1 I *D sky130_fd_sc_hd__o21ai_0
*I *777:Y O *D sky130_fd_sc_hd__nand2_1
*CAP
1 *778:B1 8.84254e-05
2 *777:Y 8.84254e-05
3 *203:993 *778:B1 0
4 *204:1023 *778:B1 0
5 *204:1056 *778:B1 0
*RES
1 *777:Y *778:B1 29.5464 
*END

*D_NET *253 0.000747512
*CONN
*I *781:A2 I *D sky130_fd_sc_hd__o21ai_0
*I *779:Y O *D sky130_fd_sc_hd__nand2_1
*CAP
1 *781:A2 0.000373756
2 *779:Y 0.000373756
3 *781:A2 *780:A 0
4 *204:1056 *781:A2 0
5 *204:1066 *781:A2 0
6 *246:617 *781:A2 0
*RES
1 *779:Y *781:A2 35.8679 
*END

*D_NET *254 9.06964e-05
*CONN
*I *781:B1 I *D sky130_fd_sc_hd__o21ai_0
*I *780:Y O *D sky130_fd_sc_hd__nand2_1
*CAP
1 *781:B1 4.53482e-05
2 *780:Y 4.53482e-05
3 *780:B *781:B1 0
*RES
1 *780:Y *781:B1 19.5464 
*END

*D_NET *255 0.000210484
*CONN
*I *784:A2 I *D sky130_fd_sc_hd__o21ai_0
*I *782:Y O *D sky130_fd_sc_hd__nand2_1
*CAP
1 *784:A2 0.000105242
2 *782:Y 0.000105242
3 *784:A2 *782:A 0
4 *784:A2 *784:B1 0
5 *784:A2 *499:39 0
6 *782:B *784:A2 0
*RES
1 *782:Y *784:A2 20.7964 
*END

*D_NET *256 0.000507386
*CONN
*I *784:B1 I *D sky130_fd_sc_hd__o21ai_0
*I *783:Y O *D sky130_fd_sc_hd__nand2_1
*CAP
1 *784:B1 0.000253693
2 *783:Y 0.000253693
3 *784:B1 *782:A 0
4 *784:B1 *783:A 0
5 *782:B *784:B1 0
6 *784:A2 *784:B1 0
7 *1087:D *784:B1 0
*RES
1 *783:Y *784:B1 24.1 
*END

*D_NET *257 0.00023387
*CONN
*I *787:A2 I *D sky130_fd_sc_hd__o21ai_0
*I *785:Y O *D sky130_fd_sc_hd__nand2_1
*CAP
1 *787:A2 0.000116935
2 *785:Y 0.000116935
3 *787:A2 *499:39 0
4 *785:B *787:A2 0
5 *1087:D *787:A2 0
6 *1088:D *787:A2 0
*RES
1 *785:Y *787:A2 30.1 
*END

*D_NET *258 0.000274698
*CONN
*I *787:B1 I *D sky130_fd_sc_hd__o21ai_0
*I *786:Y O *D sky130_fd_sc_hd__nand2_1
*CAP
1 *787:B1 0.000137349
2 *786:Y 0.000137349
3 *783:B *787:B1 0
4 *787:A1 *787:B1 0
5 *1088:D *787:B1 0
*RES
1 *786:Y *787:B1 30.6 
*END

*D_NET *259 0.000340877
*CONN
*I *790:A2 I *D sky130_fd_sc_hd__o21ai_0
*I *788:Y O *D sky130_fd_sc_hd__nand2_1
*CAP
1 *790:A2 0.000170439
2 *788:Y 0.000170439
3 *790:A2 *788:A 0
4 *204:999 *790:A2 0
5 *246:565 *790:A2 0
*RES
1 *788:Y *790:A2 31.3143 
*END

*D_NET *260 9.06964e-05
*CONN
*I *790:B1 I *D sky130_fd_sc_hd__o21ai_0
*I *789:Y O *D sky130_fd_sc_hd__nand2_1
*CAP
1 *790:B1 4.53482e-05
2 *789:Y 4.53482e-05
3 *789:B *790:B1 0
*RES
1 *789:Y *790:B1 19.5464 
*END

*D_NET *261 0.000556277
*CONN
*I *793:A2 I *D sky130_fd_sc_hd__o21ai_0
*I *791:Y O *D sky130_fd_sc_hd__nand2_1
*CAP
1 *793:A2 0.000278139
2 *791:Y 0.000278139
3 *793:A2 *788:A 0
4 *793:A2 *455:428 0
5 *793:A2 *501:10 0
6 *788:B *793:A2 0
7 *203:1004 *793:A2 0
8 *203:1013 *793:A2 0
9 *246:565 *793:A2 0
*RES
1 *791:Y *793:A2 33.475 
*END

*D_NET *262 9.06963e-05
*CONN
*I *793:B1 I *D sky130_fd_sc_hd__o21ai_0
*I *792:Y O *D sky130_fd_sc_hd__nand2_1
*CAP
1 *793:B1 4.53482e-05
2 *792:Y 4.53482e-05
3 *792:B *793:B1 0
*RES
1 *792:Y *793:B1 19.5464 
*END

*D_NET *263 0.000169414
*CONN
*I *796:A2 I *D sky130_fd_sc_hd__o21ai_0
*I *794:Y O *D sky130_fd_sc_hd__nand2_1
*CAP
1 *796:A2 8.4707e-05
2 *794:Y 8.4707e-05
*RES
1 *794:Y *796:A2 20.3679 
*END

*D_NET *264 0.000505339
*CONN
*I *796:B1 I *D sky130_fd_sc_hd__o21ai_0
*I *795:Y O *D sky130_fd_sc_hd__nand2_1
*CAP
1 *796:B1 0.000252669
2 *795:Y 0.000252669
3 *796:B1 *455:455 0
4 *796:B1 *543:8 0
5 *796:B1 *615:35 0
6 *1091:D *796:B1 0
*RES
1 *795:Y *796:B1 33.4571 
*END

*D_NET *265 0.000470932
*CONN
*I *799:A2 I *D sky130_fd_sc_hd__o21ai_0
*I *797:Y O *D sky130_fd_sc_hd__nand2_1
*CAP
1 *799:A2 0.000235466
2 *797:Y 0.000235466
3 *799:A2 *810:A 0
4 *797:B *799:A2 0
5 *1111:D *799:A2 0
6 *16:11 *799:A2 0
7 *204:119 *799:A2 0
8 *246:100 *799:A2 0
*RES
1 *797:Y *799:A2 32.6714 
*END

*D_NET *266 0.000264712
*CONN
*I *799:B1 I *D sky130_fd_sc_hd__o21ai_0
*I *798:Y O *D sky130_fd_sc_hd__nand2_1
*CAP
1 *799:B1 0.000132356
2 *798:Y 0.000132356
3 *1111:D *799:B1 0
4 *203:788 *799:B1 0
5 *204:115 *799:B1 0
6 *204:119 *799:B1 0
*RES
1 *798:Y *799:B1 30.4214 
*END

*D_NET *267 0.000274776
*CONN
*I *802:A2 I *D sky130_fd_sc_hd__o21ai_0
*I *800:Y O *D sky130_fd_sc_hd__nand2_1
*CAP
1 *802:A2 0.000137388
2 *800:Y 0.000137388
3 *800:B *802:A2 0
4 *1103:D *802:A2 0
5 *31:12 *802:A2 0
*RES
1 *800:Y *802:A2 30.6 
*END

*D_NET *268 0.00034072
*CONN
*I *802:B1 I *D sky130_fd_sc_hd__o21ai_0
*I *801:Y O *D sky130_fd_sc_hd__nand2_1
*CAP
1 *802:B1 0.00017036
2 *801:Y 0.00017036
*RES
1 *801:Y *802:B1 31.3143 
*END

*D_NET *269 0.000367919
*CONN
*I *805:A2 I *D sky130_fd_sc_hd__o21ai_0
*I *803:Y O *D sky130_fd_sc_hd__nand2_1
*CAP
1 *805:A2 0.00018396
2 *803:Y 0.00018396
3 *805:A2 *801:A 0
4 *805:A2 *805:B1 0
*RES
1 *803:Y *805:A2 22.4393 
*END

*D_NET *270 0.000239575
*CONN
*I *805:B1 I *D sky130_fd_sc_hd__o21ai_0
*I *804:Y O *D sky130_fd_sc_hd__nand2_1
*CAP
1 *805:B1 0.000119788
2 *804:Y 0.000119788
3 *805:A2 *805:B1 0
4 *204:139 *805:B1 0
5 *204:151 *805:B1 0
*RES
1 *804:Y *805:B1 21.1 
*END

*D_NET *271 0.000210484
*CONN
*I *808:A2 I *D sky130_fd_sc_hd__o21ai_0
*I *806:Y O *D sky130_fd_sc_hd__nand2_1
*CAP
1 *808:A2 0.000105242
2 *806:Y 0.000105242
3 *808:A2 *806:A 0
4 *808:A1 *808:A2 0
5 *16:11 *808:A2 0
6 *204:123 *808:A2 0
7 *246:113 *808:A2 0
*RES
1 *806:Y *808:A2 20.7964 
*END

*D_NET *272 0.00071141
*CONN
*I *808:B1 I *D sky130_fd_sc_hd__o21ai_0
*I *807:Y O *D sky130_fd_sc_hd__nand2_1
*CAP
1 *808:B1 0.000355705
2 *807:Y 0.000355705
3 *808:B1 *797:A 0
4 *808:B1 *493:39 0
5 *246:113 *808:B1 0
*RES
1 *807:Y *808:B1 36.1736 
*END

*D_NET *273 0.000210484
*CONN
*I *811:A2 I *D sky130_fd_sc_hd__o21ai_0
*I *809:Y O *D sky130_fd_sc_hd__nand2_1
*CAP
1 *811:A2 0.000105242
2 *809:Y 0.000105242
3 *811:A2 *811:B1 0
4 *811:A1 *811:A2 0
5 *1096:D *811:A2 0
6 *203:756 *811:A2 0
*RES
1 *809:Y *811:A2 20.7964 
*END

*D_NET *274 0.000208773
*CONN
*I *811:B1 I *D sky130_fd_sc_hd__o21ai_0
*I *810:Y O *D sky130_fd_sc_hd__nand2_1
*CAP
1 *811:B1 0.000104386
2 *810:Y 0.000104386
3 *811:A2 *811:B1 0
4 *203:756 *811:B1 0
5 *203:777 *811:B1 0
*RES
1 *810:Y *811:B1 20.7786 
*END

*D_NET *275 0.000240923
*CONN
*I *814:A2 I *D sky130_fd_sc_hd__o21ai_0
*I *812:Y O *D sky130_fd_sc_hd__nand2_1
*CAP
1 *814:A2 0.000120462
2 *812:Y 0.000120462
3 *814:A2 *815:A 0
4 *246:83 *814:A2 0
5 *246:89 *814:A2 0
*RES
1 *812:Y *814:A2 30.1893 
*END

*D_NET *276 0.000196059
*CONN
*I *814:B1 I *D sky130_fd_sc_hd__o21ai_0
*I *813:Y O *D sky130_fd_sc_hd__nand2_1
*CAP
1 *814:B1 9.80294e-05
2 *813:Y 9.80294e-05
3 *814:B1 *815:A 0
4 *814:B1 *479:32 0
5 *1097:D *814:B1 0
6 *246:83 *814:B1 0
*RES
1 *813:Y *814:B1 29.7786 
*END

*D_NET *277 0.000409955
*CONN
*I *817:A2 I *D sky130_fd_sc_hd__o21ai_0
*I *815:Y O *D sky130_fd_sc_hd__nand2_1
*CAP
1 *817:A2 0.000204978
2 *815:Y 0.000204978
3 *817:A2 *862:A 0
4 *817:A2 *862:B 0
5 *860:B *817:A2 0
6 *1098:D *817:A2 0
7 *1113:D *817:A2 0
8 *246:89 *817:A2 0
*RES
1 *815:Y *817:A2 32.2071 
*END

*D_NET *278 9.06963e-05
*CONN
*I *817:B1 I *D sky130_fd_sc_hd__o21ai_0
*I *816:Y O *D sky130_fd_sc_hd__nand2_1
*CAP
1 *817:B1 4.53482e-05
2 *816:Y 4.53482e-05
3 *817:B1 *862:A 0
4 *816:B *817:B1 0
5 *1098:D *817:B1 0
*RES
1 *816:Y *817:B1 19.5464 
*END

*D_NET *279 0.000252249
*CONN
*I *820:A2 I *D sky130_fd_sc_hd__o21ai_0
*I *818:Y O *D sky130_fd_sc_hd__nand2_1
*CAP
1 *820:A2 0.000126125
2 *818:Y 0.000126125
3 *203:746 *820:A2 0
*RES
1 *818:Y *820:A2 30.5821 
*END

*D_NET *280 9.06964e-05
*CONN
*I *820:B1 I *D sky130_fd_sc_hd__o21ai_0
*I *819:Y O *D sky130_fd_sc_hd__nand2_1
*CAP
1 *820:B1 4.53482e-05
2 *819:Y 4.53482e-05
3 *1099:D *820:B1 0
*RES
1 *819:Y *820:B1 19.5464 
*END

*D_NET *281 0.000332839
*CONN
*I *823:A2 I *D sky130_fd_sc_hd__o21ai_0
*I *821:Y O *D sky130_fd_sc_hd__nand2_1
*CAP
1 *823:A2 0.000166419
2 *821:Y 0.000166419
3 *203:726 *823:A2 0
4 *203:738 *823:A2 0
5 *246:135 *823:A2 0
6 *246:137 *823:A2 0
*RES
1 *821:Y *823:A2 22.0107 
*END

*D_NET *282 0.000235418
*CONN
*I *823:B1 I *D sky130_fd_sc_hd__o21ai_0
*I *822:Y O *D sky130_fd_sc_hd__nand2_1
*CAP
1 *823:B1 0.000117709
2 *822:Y 0.000117709
3 *823:B1 *487:15 0
4 *833:B *823:B1 0
5 *204:139 *823:B1 0
*RES
1 *822:Y *823:B1 30.1893 
*END

*D_NET *283 0.000643431
*CONN
*I *826:A2 I *D sky130_fd_sc_hd__o21ai_0
*I *824:Y O *D sky130_fd_sc_hd__nand2_1
*CAP
1 *826:A2 0.000321715
2 *824:Y 0.000321715
3 *826:A2 *763:B 0
4 *826:A2 *484:38 0
5 *824:B *826:A2 0
6 *203:602 *826:A2 0
*RES
1 *824:Y *826:A2 25.3143 
*END

*D_NET *284 0.000398358
*CONN
*I *826:B1 I *D sky130_fd_sc_hd__o21ai_0
*I *825:Y O *D sky130_fd_sc_hd__nand2_1
*CAP
1 *826:B1 0.000199179
2 *825:Y 0.000199179
3 *826:B1 *484:26 0
4 *203:602 *826:B1 0
5 *246:148 *826:B1 0
*RES
1 *825:Y *826:B1 31.8321 
*END

*D_NET *285 0.000216473
*CONN
*I *829:A2 I *D sky130_fd_sc_hd__o21ai_0
*I *827:Y O *D sky130_fd_sc_hd__nand2_1
*CAP
1 *829:A2 0.000108237
2 *827:Y 0.000108237
3 *829:A2 *829:B1 0
4 *1102:D *829:A2 0
5 *204:846 *829:A2 0
6 *246:141 *829:A2 0
*RES
1 *827:Y *829:A2 20.9214 
*END

*D_NET *286 0.000208773
*CONN
*I *829:B1 I *D sky130_fd_sc_hd__o21ai_0
*I *828:Y O *D sky130_fd_sc_hd__nand2_1
*CAP
1 *829:B1 0.000104386
2 *828:Y 0.000104386
3 *829:A2 *829:B1 0
4 *204:846 *829:B1 0
5 *246:141 *829:B1 0
*RES
1 *828:Y *829:B1 20.7786 
*END

*D_NET *287 0.000249843
*CONN
*I *832:A2 I *D sky130_fd_sc_hd__o21ai_0
*I *830:Y O *D sky130_fd_sc_hd__nand2_1
*CAP
1 *832:A2 0.000124921
2 *830:Y 0.000124921
3 *832:A2 *830:A 0
4 *832:A2 *832:B1 0
5 *800:B *832:A2 0
6 *241:8 *832:A2 0
*RES
1 *830:Y *832:A2 21.2071 
*END

*D_NET *288 0.000438081
*CONN
*I *832:B1 I *D sky130_fd_sc_hd__o21ai_0
*I *831:Y O *D sky130_fd_sc_hd__nand2_1
*CAP
1 *832:B1 0.00021904
2 *831:Y 0.00021904
3 *832:B1 *801:A 0
4 *800:B *832:B1 0
5 *831:B *832:B1 0
6 *832:A2 *832:B1 0
*RES
1 *831:Y *832:B1 23.1714 
*END

*D_NET *289 0.000210484
*CONN
*I *835:A2 I *D sky130_fd_sc_hd__o21ai_0
*I *833:Y O *D sky130_fd_sc_hd__nand2_1
*CAP
1 *835:A2 0.000105242
2 *833:Y 0.000105242
3 *835:A2 *833:A 0
4 *835:A2 *835:B1 0
*RES
1 *833:Y *835:A2 20.7964 
*END

*D_NET *290 0.00084847
*CONN
*I *835:B1 I *D sky130_fd_sc_hd__o21ai_0
*I *834:Y O *D sky130_fd_sc_hd__nand2_1
*CAP
1 *835:B1 0.000424235
2 *834:Y 0.000424235
3 *835:B1 *833:A 0
4 *835:B1 *482:12 0
5 *835:B1 *487:10 0
6 *835:A2 *835:B1 0
7 *1176:D *835:B1 0
8 *204:135 *835:B1 0
*RES
1 *834:Y *835:B1 36.7786 
*END

*D_NET *291 0.000449156
*CONN
*I *838:A2 I *D sky130_fd_sc_hd__o21ai_0
*I *836:Y O *D sky130_fd_sc_hd__nand2_1
*CAP
1 *838:A2 0.000224578
2 *836:Y 0.000224578
3 *838:A2 *1049:A 0
4 *838:A2 *488:20 0
5 *838:A2 *490:12 0
6 *838:A1 *838:A2 0
7 *29:8 *838:A2 0
*RES
1 *836:Y *838:A2 32.6179 
*END

*D_NET *292 0.0002353
*CONN
*I *838:B1 I *D sky130_fd_sc_hd__o21ai_0
*I *837:Y O *D sky130_fd_sc_hd__nand2_1
*CAP
1 *838:B1 0.00011765
2 *837:Y 0.00011765
3 *838:B1 *839:A 0
4 *838:B1 *488:20 0
5 *204:175 *838:B1 0
*RES
1 *837:Y *838:B1 30.1893 
*END

*D_NET *293 0.000210484
*CONN
*I *841:A2 I *D sky130_fd_sc_hd__o21ai_0
*I *839:Y O *D sky130_fd_sc_hd__nand2_1
*CAP
1 *841:A2 0.000105242
2 *839:Y 0.000105242
3 *841:A2 *839:A 0
4 *841:A2 *841:B1 0
5 *841:A2 *489:43 0
6 *30:11 *841:A2 0
*RES
1 *839:Y *841:A2 20.7964 
*END

*D_NET *294 0.000208773
*CONN
*I *841:B1 I *D sky130_fd_sc_hd__o21ai_0
*I *840:Y O *D sky130_fd_sc_hd__nand2_1
*CAP
1 *841:B1 0.000104386
2 *840:Y 0.000104386
3 *841:B1 *839:A 0
4 *841:B1 *489:43 0
5 *840:B *841:B1 0
6 *841:A2 *841:B1 0
*RES
1 *840:Y *841:B1 20.7786 
*END

*D_NET *295 0.000400866
*CONN
*I *844:A I *D sky130_fd_sc_hd__nand2_1
*I *842:Y O *D sky130_fd_sc_hd__nand2_1
*CAP
1 *844:A 0.000200433
2 *842:Y 0.000200433
3 *844:A *845:A 0
4 *840:B *844:A 0
5 *204:175 *844:A 0
6 *204:179 *844:A 0
7 *204:195 *844:A 0
*RES
1 *842:Y *844:A 31.8857 
*END

*D_NET *296 0.000131766
*CONN
*I *844:B I *D sky130_fd_sc_hd__nand2_1
*I *843:Y O *D sky130_fd_sc_hd__nand2_1
*CAP
1 *844:B 6.58832e-05
2 *843:Y 6.58832e-05
3 *844:B *839:A 0
4 *844:B *842:A 0
5 *844:B *843:A 0
6 *204:175 *844:B 0
*RES
1 *843:Y *844:B 19.975 
*END

*D_NET *297 0.000210484
*CONN
*I *847:A2 I *D sky130_fd_sc_hd__o21ai_0
*I *845:Y O *D sky130_fd_sc_hd__nand2_1
*CAP
1 *847:A2 0.000105242
2 *845:Y 0.000105242
3 *847:A2 *847:B1 0
4 *847:A2 *1051:A 0
5 *845:B *847:A2 0
6 *203:685 *847:A2 0
*RES
1 *845:Y *847:A2 20.7964 
*END

*D_NET *298 0.000240003
*CONN
*I *847:B1 I *D sky130_fd_sc_hd__o21ai_0
*I *846:Y O *D sky130_fd_sc_hd__nand2_1
*CAP
1 *847:B1 0.000120002
2 *846:Y 0.000120002
3 *845:B *847:B1 0
4 *846:B *847:B1 0
5 *847:A2 *847:B1 0
6 *848:B *847:B1 0
*RES
1 *846:Y *847:B1 21.2964 
*END

*D_NET *299 0.000210484
*CONN
*I *850:A2 I *D sky130_fd_sc_hd__o21ai_0
*I *848:Y O *D sky130_fd_sc_hd__nand2_1
*CAP
1 *850:A2 0.000105242
2 *848:Y 0.000105242
3 *850:A2 *848:A 0
4 *850:A2 *850:B1 0
5 *33:7 *850:A2 0
*RES
1 *848:Y *850:A2 20.7964 
*END

*D_NET *300 0.000285247
*CONN
*I *850:B1 I *D sky130_fd_sc_hd__o21ai_0
*I *849:Y O *D sky130_fd_sc_hd__nand2_1
*CAP
1 *850:B1 0.000142623
2 *849:Y 0.000142623
3 *850:B1 *848:A 0
4 *849:B *850:B1 0
5 *850:A2 *850:B1 0
*RES
1 *849:Y *850:B1 30.6357 
*END

*D_NET *301 0.000240923
*CONN
*I *853:A I *D sky130_fd_sc_hd__nand2_1
*I *851:Y O *D sky130_fd_sc_hd__nand2_1
*CAP
1 *853:A 0.000120462
2 *851:Y 0.000120462
3 *853:A *851:A 0
4 *853:A *852:A 0
5 *849:B *853:A 0
6 *204:917 *853:A 0
*RES
1 *851:Y *853:A 30.1893 
*END

*D_NET *302 0.000210484
*CONN
*I *853:B I *D sky130_fd_sc_hd__nand2_1
*I *852:Y O *D sky130_fd_sc_hd__nand2_1
*CAP
1 *853:B 0.000105242
2 *852:Y 0.000105242
3 *852:B *853:B 0
*RES
1 *852:Y *853:B 20.7964 
*END

*D_NET *303 0.000131766
*CONN
*I *856:A I *D sky130_fd_sc_hd__nand2_1
*I *854:Y O *D sky130_fd_sc_hd__nand2_1
*CAP
1 *856:A 6.58832e-05
2 *854:Y 6.58832e-05
3 *856:A *856:B 0
4 *855:B *856:A 0
5 *203:777 *856:A 0
*RES
1 *854:Y *856:A 19.975 
*END

*D_NET *304 0.00032856
*CONN
*I *856:B I *D sky130_fd_sc_hd__nand2_1
*I *855:Y O *D sky130_fd_sc_hd__nand2_1
*CAP
1 *856:B 0.00016428
2 *855:Y 0.00016428
3 *855:B *856:B 0
4 *856:A *856:B 0
5 *203:777 *856:B 0
*RES
1 *855:Y *856:B 22.0286 
*END

*D_NET *305 0.000171463
*CONN
*I *859:A I *D sky130_fd_sc_hd__nand2_1
*I *857:Y O *D sky130_fd_sc_hd__nand2_1
*CAP
1 *859:A 8.57316e-05
2 *857:Y 8.57316e-05
3 *859:A *798:A 0
4 *859:A *495:40 0
5 *204:99 *859:A 0
*RES
1 *857:Y *859:A 29.5464 
*END

*D_NET *306 0.000409994
*CONN
*I *859:B I *D sky130_fd_sc_hd__nand2_1
*I *858:Y O *D sky130_fd_sc_hd__nand2_1
*CAP
1 *859:B 0.000204997
2 *858:Y 0.000204997
3 *859:B *798:A 0
4 *246:99 *859:B 0
*RES
1 *858:Y *859:B 32.2071 
*END

*D_NET *307 0.000498312
*CONN
*I *862:A I *D sky130_fd_sc_hd__nand2_1
*I *860:Y O *D sky130_fd_sc_hd__nand2_1
*CAP
1 *862:A 0.000249156
2 *860:Y 0.000249156
3 *817:A2 *862:A 0
4 *817:B1 *862:A 0
5 *860:B *862:A 0
*RES
1 *860:Y *862:A 32.9571 
*END

*D_NET *308 0.000301518
*CONN
*I *862:B I *D sky130_fd_sc_hd__nand2_1
*I *861:Y O *D sky130_fd_sc_hd__nand2_1
*CAP
1 *862:B 0.000150759
2 *861:Y 0.000150759
3 *862:B *861:A 0
4 *817:A2 *862:B 0
5 *1098:D *862:B 0
6 *246:89 *862:B 0
*RES
1 *861:Y *862:B 30.9036 
*END

*D_NET *309 0.000210484
*CONN
*I *865:A2 I *D sky130_fd_sc_hd__o21ai_0
*I *863:Y O *D sky130_fd_sc_hd__nand2_1
*CAP
1 *865:A2 0.000105242
2 *863:Y 0.000105242
3 *865:A2 *865:B1 0
*RES
1 *863:Y *865:A2 20.7964 
*END

*D_NET *310 0.000278934
*CONN
*I *865:B1 I *D sky130_fd_sc_hd__o21ai_0
*I *864:Y O *D sky130_fd_sc_hd__nand2_1
*CAP
1 *865:B1 0.000139467
2 *864:Y 0.000139467
3 *865:A1 *865:B1 0
4 *865:A2 *865:B1 0
5 *246:80 *865:B1 0
*RES
1 *864:Y *865:B1 21.5107 
*END

*D_NET *311 0.000210484
*CONN
*I *868:A I *D sky130_fd_sc_hd__nand2_1
*I *866:Y O *D sky130_fd_sc_hd__nand2_1
*CAP
1 *868:A 0.000105242
2 *866:Y 0.000105242
3 *868:A *868:B 0
4 *1115:D *868:A 0
*RES
1 *866:Y *868:A 20.7964 
*END

*D_NET *312 0.00044407
*CONN
*I *868:B I *D sky130_fd_sc_hd__nand2_1
*I *867:Y O *D sky130_fd_sc_hd__nand2_1
*CAP
1 *868:B 0.000222035
2 *867:Y 0.000222035
3 *868:B *534:16 0
4 *868:B *544:32 0
5 *868:A *868:B 0
6 *1115:D *868:B 0
7 *203:25 *868:B 0
*RES
1 *867:Y *868:B 23.2964 
*END

*D_NET *313 0.000543098
*CONN
*I *871:A I *D sky130_fd_sc_hd__nand2_1
*I *869:Y O *D sky130_fd_sc_hd__nand2_1
*CAP
1 *871:A 0.000271549
2 *869:Y 0.000271549
3 *871:A *866:A 0
4 *870:B *871:A 0
5 *1007:B *871:A 0
6 *203:32 *871:A 0
7 *204:63 *871:A 0
*RES
1 *869:Y *871:A 33.3679 
*END

*D_NET *314 0.000171125
*CONN
*I *871:B I *D sky130_fd_sc_hd__nand2_1
*I *870:Y O *D sky130_fd_sc_hd__nand2_1
*CAP
1 *871:B 8.55626e-05
2 *870:Y 8.55626e-05
3 *870:B *871:B 0
*RES
1 *870:Y *871:B 20.3857 
*END

*D_NET *315 0.000673634
*CONN
*I *874:A I *D sky130_fd_sc_hd__nand2_1
*I *872:Y O *D sky130_fd_sc_hd__nand2_1
*CAP
1 *874:A 0.000336817
2 *872:Y 0.000336817
3 *874:A *872:A 0
4 *874:A *874:B 0
5 *874:A *546:26 0
6 *874:A *546:46 0
7 *872:B *874:A 0
*RES
1 *872:Y *874:A 34.7071 
*END

*D_NET *316 0.00099766
*CONN
*I *874:B I *D sky130_fd_sc_hd__nand2_1
*I *873:Y O *D sky130_fd_sc_hd__nand2_1
*CAP
1 *874:B 0.00049883
2 *873:Y 0.00049883
3 *874:B *546:26 0
4 *874:B *546:46 0
5 *874:A *874:B 0
*RES
1 *873:Y *874:B 29.0107 
*END

*D_NET *317 0.000210484
*CONN
*I *877:A2 I *D sky130_fd_sc_hd__o21ai_0
*I *875:Y O *D sky130_fd_sc_hd__nand2_1
*CAP
1 *877:A2 0.000105242
2 *875:Y 0.000105242
3 *877:A2 *877:B1 0
4 *203:94 *877:A2 0
*RES
1 *875:Y *877:A2 20.7964 
*END

*D_NET *318 0.000255832
*CONN
*I *877:B1 I *D sky130_fd_sc_hd__o21ai_0
*I *876:Y O *D sky130_fd_sc_hd__nand2_1
*CAP
1 *877:B1 0.000127916
2 *876:Y 0.000127916
3 *876:B *877:B1 0
4 *877:A2 *877:B1 0
5 *203:94 *877:B1 0
*RES
1 *876:Y *877:B1 21.3321 
*END

*D_NET *319 0.000357554
*CONN
*I *880:A I *D sky130_fd_sc_hd__nand2_1
*I *878:Y O *D sky130_fd_sc_hd__nand2_1
*CAP
1 *880:A 0.000178777
2 *878:Y 0.000178777
3 *880:A *758:D_N 0
4 *880:A *880:B 0
5 *880:A *898:A 0
*RES
1 *878:Y *880:A 31.4393 
*END

*D_NET *320 0.000696101
*CONN
*I *880:B I *D sky130_fd_sc_hd__nand2_1
*I *879:Y O *D sky130_fd_sc_hd__nand2_1
*CAP
1 *880:B 0.00034805
2 *879:Y 0.00034805
3 *880:B *758:B 0
4 *880:B *896:A 0
5 *880:B *538:20 0
6 *880:A *880:B 0
*RES
1 *879:Y *880:B 35.0464 
*END

*D_NET *321 0.00032856
*CONN
*I *883:A I *D sky130_fd_sc_hd__nand2_1
*I *881:Y O *D sky130_fd_sc_hd__nand2_1
*CAP
1 *883:A 0.00016428
2 *881:Y 0.00016428
3 *883:A *881:A 0
4 *883:A *883:B 0
5 *893:B *883:A 0
6 *204:666 *883:A 0
*RES
1 *881:Y *883:A 22.0286 
*END

*D_NET *322 0.000131766
*CONN
*I *883:B I *D sky130_fd_sc_hd__nand2_1
*I *882:Y O *D sky130_fd_sc_hd__nand2_1
*CAP
1 *883:B 6.58832e-05
2 *882:Y 6.58832e-05
3 *883:B *881:A 0
4 *883:A *883:B 0
5 *893:B *883:B 0
*RES
1 *882:Y *883:B 19.975 
*END

*D_NET *323 0.000210484
*CONN
*I *886:A2 I *D sky130_fd_sc_hd__o21ai_0
*I *884:Y O *D sky130_fd_sc_hd__nand2_1
*CAP
1 *886:A2 0.000105242
2 *884:Y 0.000105242
3 *886:A2 *886:B1 0
4 *886:A1 *886:A2 0
*RES
1 *884:Y *886:A2 20.7964 
*END

*D_NET *324 0.000284923
*CONN
*I *886:B1 I *D sky130_fd_sc_hd__o21ai_0
*I *885:Y O *D sky130_fd_sc_hd__nand2_1
*CAP
1 *886:B1 0.000142462
2 *885:Y 0.000142462
3 *886:A1 *886:B1 0
4 *886:A2 *886:B1 0
*RES
1 *885:Y *886:B1 21.6357 
*END

*D_NET *325 0.000216473
*CONN
*I *889:A2 I *D sky130_fd_sc_hd__o21ai_0
*I *887:Y O *D sky130_fd_sc_hd__nand2_1
*CAP
1 *889:A2 0.000108237
2 *887:Y 0.000108237
3 *889:A2 *889:B1 0
4 *887:B *889:A2 0
5 *1122:D *889:A2 0
*RES
1 *887:Y *889:A2 20.9214 
*END

*D_NET *326 0.00028749
*CONN
*I *889:B1 I *D sky130_fd_sc_hd__o21ai_0
*I *888:Y O *D sky130_fd_sc_hd__nand2_1
*CAP
1 *889:B1 0.000143745
2 *888:Y 0.000143745
3 *889:B1 *551:38 0
4 *887:B *889:B1 0
5 *889:A2 *889:B1 0
6 *1122:D *889:B1 0
*RES
1 *888:Y *889:B1 21.6 
*END

*D_NET *327 0.000210484
*CONN
*I *892:A2 I *D sky130_fd_sc_hd__o21ai_0
*I *890:Y O *D sky130_fd_sc_hd__nand2_1
*CAP
1 *892:A2 0.000105242
2 *890:Y 0.000105242
3 *892:A2 *890:A 0
4 *892:A2 *892:B1 0
5 *886:A1 *892:A2 0
*RES
1 *890:Y *892:A2 20.7964 
*END

*D_NET *328 0.000208773
*CONN
*I *892:B1 I *D sky130_fd_sc_hd__o21ai_0
*I *891:Y O *D sky130_fd_sc_hd__nand2_1
*CAP
1 *892:B1 0.000104386
2 *891:Y 0.000104386
3 *892:B1 *890:A 0
4 *892:A2 *892:B1 0
*RES
1 *891:Y *892:B1 20.7786 
*END

*D_NET *329 0.000210484
*CONN
*I *895:A I *D sky130_fd_sc_hd__nand2_1
*I *893:Y O *D sky130_fd_sc_hd__nand2_1
*CAP
1 *895:A 0.000105242
2 *893:Y 0.000105242
*RES
1 *893:Y *895:A 20.7964 
*END

*D_NET *330 0.000289202
*CONN
*I *895:B I *D sky130_fd_sc_hd__nand2_1
*I *894:Y O *D sky130_fd_sc_hd__nand2_1
*CAP
1 *895:B 0.000144601
2 *894:Y 0.000144601
3 *893:B *895:B 0
*RES
1 *894:Y *895:B 21.6179 
*END

*D_NET *331 0.00026212
*CONN
*I *898:A I *D sky130_fd_sc_hd__nand2_1
*I *896:Y O *D sky130_fd_sc_hd__nand2_1
*CAP
1 *898:A 0.00013106
2 *896:Y 0.00013106
3 *898:A *758:D_N 0
4 *898:A *881:A 0
5 *898:A *896:A 0
6 *898:A *898:B 0
7 *880:A *898:A 0
8 *203:138 *898:A 0
*RES
1 *896:Y *898:A 30.4929 
*END

*D_NET *332 0.00032443
*CONN
*I *898:B I *D sky130_fd_sc_hd__nand2_1
*I *897:Y O *D sky130_fd_sc_hd__nand2_1
*CAP
1 *898:B 0.000162215
2 *897:Y 0.000162215
3 *898:B *881:A 0
4 *898:A *898:B 0
5 *1125:D *898:B 0
6 *203:150 *898:B 0
*RES
1 *897:Y *898:B 40.1536 
*END

*D_NET *333 0.000196059
*CONN
*I *901:A2 I *D sky130_fd_sc_hd__o21ai_0
*I *899:Y O *D sky130_fd_sc_hd__nand2_1
*CAP
1 *901:A2 9.80294e-05
2 *899:Y 9.80294e-05
3 *901:A2 *901:B1 0
4 *901:A2 *539:42 0
5 *246:316 *901:A2 0
*RES
1 *899:Y *901:A2 29.7786 
*END

*D_NET *334 0.000380236
*CONN
*I *901:B1 I *D sky130_fd_sc_hd__o21ai_0
*I *900:Y O *D sky130_fd_sc_hd__nand2_1
*CAP
1 *901:B1 0.000190118
2 *900:Y 0.000190118
3 *901:B1 *758:B 0
4 *901:B1 *900:A 0
5 *901:B1 *539:42 0
6 *901:A2 *901:B1 0
7 *203:203 *901:B1 0
8 *204:450 *901:B1 0
*RES
1 *900:Y *901:B1 31.725 
*END

*D_NET *335 0.000274099
*CONN
*I *904:A I *D sky130_fd_sc_hd__nand2_1
*I *902:Y O *D sky130_fd_sc_hd__nand2_1
*CAP
1 *904:A 0.000137049
2 *902:Y 0.000137049
3 *904:A *904:B 0
4 *51:17 *904:A 0
5 *204:481 *904:A 0
6 *246:335 *904:A 0
*RES
1 *902:Y *904:A 30.6179 
*END

*D_NET *336 0.000352816
*CONN
*I *904:B I *D sky130_fd_sc_hd__nand2_1
*I *903:Y O *D sky130_fd_sc_hd__nand2_1
*CAP
1 *904:B 0.000176408
2 *903:Y 0.000176408
3 *904:A *904:B 0
4 *204:663 *904:B 0
*RES
1 *903:Y *904:B 31.4393 
*END

*D_NET *337 0.000210484
*CONN
*I *907:A2 I *D sky130_fd_sc_hd__o21ai_0
*I *905:Y O *D sky130_fd_sc_hd__nand2_1
*CAP
1 *907:A2 0.000105242
2 *905:Y 0.000105242
3 *907:A2 *760:B 0
4 *907:A2 *907:B1 0
*RES
1 *905:Y *907:A2 20.7964 
*END

*D_NET *338 0.000208773
*CONN
*I *907:B1 I *D sky130_fd_sc_hd__o21ai_0
*I *906:Y O *D sky130_fd_sc_hd__nand2_1
*CAP
1 *907:B1 0.000104386
2 *906:Y 0.000104386
3 *907:B1 *760:B 0
4 *907:B1 *541:28 0
5 *907:A2 *907:B1 0
*RES
1 *906:Y *907:B1 20.7786 
*END

*D_NET *339 0.000144564
*CONN
*I *910:A2 I *D sky130_fd_sc_hd__o21ai_0
*I *908:Y O *D sky130_fd_sc_hd__nand2_1
*CAP
1 *910:A2 7.22819e-05
2 *908:Y 7.22819e-05
3 *910:A2 *760:A_N 0
4 *910:A2 *989:A 0
*RES
1 *908:Y *910:A2 29.2429 
*END

*D_NET *340 9.06963e-05
*CONN
*I *910:B1 I *D sky130_fd_sc_hd__o21ai_0
*I *909:Y O *D sky130_fd_sc_hd__nand2_1
*CAP
1 *910:B1 4.53482e-05
2 *909:Y 4.53482e-05
3 *910:B1 *909:A 0
*RES
1 *909:Y *910:B1 19.5464 
*END

*D_NET *341 0.000130055
*CONN
*I *913:A2 I *D sky130_fd_sc_hd__o21ai_0
*I *911:Y O *D sky130_fd_sc_hd__nand2_1
*CAP
1 *913:A2 6.50276e-05
2 *911:Y 6.50276e-05
3 *913:A2 *911:A 0
*RES
1 *911:Y *913:A2 19.9571 
*END

*D_NET *342 0.000222801
*CONN
*I *913:B1 I *D sky130_fd_sc_hd__o21ai_0
*I *912:Y O *D sky130_fd_sc_hd__nand2_1
*CAP
1 *913:B1 0.0001114
2 *912:Y 0.0001114
3 *913:B1 *759:C 0
4 *913:B1 *909:A 0
5 *913:B1 *911:A 0
6 *913:B1 *456:16 0
7 *913:B1 *463:24 0
8 *54:24 *913:B1 0
*RES
1 *912:Y *913:B1 30.0821 
*END

*D_NET *343 0.000655312
*CONN
*I *916:A I *D sky130_fd_sc_hd__nand2_1
*I *914:Y O *D sky130_fd_sc_hd__nand2_1
*CAP
1 *916:A 0.000327656
2 *914:Y 0.000327656
3 *916:A *915:A 0
4 *916:A *916:B 0
5 *916:A *464:25 0
6 *916:A *504:37 0
7 *55:20 *916:A 0
8 *203:227 *916:A 0
9 *203:232 *916:A 0
*RES
1 *914:Y *916:A 34.5464 
*END

*D_NET *344 0.000131766
*CONN
*I *916:B I *D sky130_fd_sc_hd__nand2_1
*I *915:Y O *D sky130_fd_sc_hd__nand2_1
*CAP
1 *916:B 6.58832e-05
2 *915:Y 6.58832e-05
3 *916:B *759:B 0
4 *916:B *915:A 0
5 *916:B *464:25 0
6 *916:A *916:B 0
*RES
1 *915:Y *916:B 19.975 
*END

*D_NET *345 0.000487707
*CONN
*I *919:A I *D sky130_fd_sc_hd__nand2_1
*I *917:Y O *D sky130_fd_sc_hd__nand2_1
*CAP
1 *919:A 0.000243853
2 *917:Y 0.000243853
3 *748:C *919:A 0
4 *748:D *919:A 0
5 *55:20 *919:A 0
*RES
1 *917:Y *919:A 23.8143 
*END

*D_NET *346 0.000171463
*CONN
*I *919:B I *D sky130_fd_sc_hd__nand2_1
*I *918:Y O *D sky130_fd_sc_hd__nand2_1
*CAP
1 *919:B 8.57316e-05
2 *918:Y 8.57316e-05
3 *919:B *748:A 0
4 *748:D *919:B 0
*RES
1 *918:Y *919:B 29.5464 
*END

*D_NET *347 0.000396913
*CONN
*I *922:A I *D sky130_fd_sc_hd__nand2_1
*I *920:Y O *D sky130_fd_sc_hd__nand2_1
*CAP
1 *922:A 0.000198457
2 *920:Y 0.000198457
3 *922:A *747:D 0
4 *922:A *922:B 0
5 *921:B *922:A 0
*RES
1 *920:Y *922:A 31.85 
*END

*D_NET *348 0.000131766
*CONN
*I *922:B I *D sky130_fd_sc_hd__nand2_1
*I *921:Y O *D sky130_fd_sc_hd__nand2_1
*CAP
1 *922:B 6.58832e-05
2 *921:Y 6.58832e-05
3 *922:A *922:B 0
*RES
1 *921:Y *922:B 19.975 
*END

*D_NET *349 0.000210484
*CONN
*I *925:A2 I *D sky130_fd_sc_hd__o21ai_0
*I *923:Y O *D sky130_fd_sc_hd__nand2_1
*CAP
1 *925:A2 0.000105242
2 *923:Y 0.000105242
3 *246:217 *925:A2 0
*RES
1 *923:Y *925:A2 20.7964 
*END

*D_NET *350 0.000208773
*CONN
*I *925:B1 I *D sky130_fd_sc_hd__o21ai_0
*I *924:Y O *D sky130_fd_sc_hd__nand2_1
*CAP
1 *925:B1 0.000104386
2 *924:Y 0.000104386
3 *58:11 *925:B1 0
4 *246:217 *925:B1 0
*RES
1 *924:Y *925:B1 20.7786 
*END

*D_NET *351 0.000392898
*CONN
*I *928:A I *D sky130_fd_sc_hd__nand2_1
*I *926:Y O *D sky130_fd_sc_hd__nand2_1
*CAP
1 *928:A 0.000196449
2 *926:Y 0.000196449
3 *928:A *927:A 0
4 *928:A *928:B 0
*RES
1 *926:Y *928:A 31.7607 
*END

*D_NET *352 0.000131766
*CONN
*I *928:B I *D sky130_fd_sc_hd__nand2_1
*I *927:Y O *D sky130_fd_sc_hd__nand2_1
*CAP
1 *928:B 6.58832e-05
2 *927:Y 6.58832e-05
3 *928:B *927:A 0
4 *928:A *928:B 0
*RES
1 *927:Y *928:B 19.975 
*END

*D_NET *353 0.00137075
*CONN
*I *931:A I *D sky130_fd_sc_hd__nand2_1
*I *929:Y O *D sky130_fd_sc_hd__nand2_1
*CAP
1 *931:A 0.000685373
2 *929:Y 0.000685373
3 *931:A *929:A 0
4 *931:A *934:A2 0
5 *931:A *934:B1 0
6 *931:A *944:A 0
7 *931:A *458:13 0
8 *931:A *518:28 0
9 *931:A *519:14 0
10 *931:A *520:35 0
11 *1136:D *931:A 0
12 *92:10 *931:A 0
*RES
1 *929:Y *931:A 38.8242 
*END

*D_NET *354 0.000564159
*CONN
*I *931:B I *D sky130_fd_sc_hd__nand2_1
*I *930:Y O *D sky130_fd_sc_hd__nand2_1
*CAP
1 *931:B 0.000282079
2 *930:Y 0.000282079
3 *931:B *469:40 0
4 *1137:D *931:B 0
5 *1139:D *931:B 0
6 *65:14 *931:B 0
*RES
1 *930:Y *931:B 42.7786 
*END

*D_NET *355 0.000327077
*CONN
*I *934:A2 I *D sky130_fd_sc_hd__o21ai_0
*I *932:Y O *D sky130_fd_sc_hd__nand2_1
*CAP
1 *934:A2 0.000163539
2 *932:Y 0.000163539
3 *934:A2 *518:28 0
4 *931:A *934:A2 0
5 *65:14 *934:A2 0
*RES
1 *932:Y *934:A2 35.988 
*END

*D_NET *356 0.000500872
*CONN
*I *934:B1 I *D sky130_fd_sc_hd__o21ai_0
*I *933:Y O *D sky130_fd_sc_hd__nand2_1
*CAP
1 *934:B1 0.000250436
2 *933:Y 0.000250436
3 *934:B1 *1033:A 0
4 *931:A *934:B1 0
5 *934:A1 *934:B1 0
6 *204:310 *934:B1 0
*RES
1 *933:Y *934:B1 32.8723 
*END

*D_NET *357 0.000210484
*CONN
*I *937:A2 I *D sky130_fd_sc_hd__o21ai_0
*I *935:Y O *D sky130_fd_sc_hd__nand2_1
*CAP
1 *937:A2 0.000105242
2 *935:Y 0.000105242
3 *937:A2 *933:A 0
4 *937:A2 *937:B1 0
*RES
1 *935:Y *937:A2 20.7964 
*END

*D_NET *358 0.000208773
*CONN
*I *937:B1 I *D sky130_fd_sc_hd__o21ai_0
*I *936:Y O *D sky130_fd_sc_hd__nand2_1
*CAP
1 *937:B1 0.000104386
2 *936:Y 0.000104386
3 *937:B1 *933:A 0
4 *937:B1 *470:15 0
5 *937:A2 *937:B1 0
*RES
1 *936:Y *937:B1 20.7786 
*END

*D_NET *359 0.00032856
*CONN
*I *940:A2 I *D sky130_fd_sc_hd__o21ai_0
*I *938:Y O *D sky130_fd_sc_hd__nand2_1
*CAP
1 *940:A2 0.00016428
2 *938:Y 0.00016428
3 *940:A2 *940:B1 0
4 *940:A2 *941:A 0
5 *940:A2 *457:13 0
6 *64:17 *940:A2 0
7 *203:878 *940:A2 0
*RES
1 *938:Y *940:A2 22.0286 
*END

*D_NET *360 9.06964e-05
*CONN
*I *940:B1 I *D sky130_fd_sc_hd__o21ai_0
*I *939:Y O *D sky130_fd_sc_hd__nand2_1
*CAP
1 *940:B1 4.53482e-05
2 *939:Y 4.53482e-05
3 *940:B1 *941:A 0
4 *940:A2 *940:B1 0
*RES
1 *939:Y *940:B1 19.5464 
*END

*D_NET *361 0.000446637
*CONN
*I *943:A I *D sky130_fd_sc_hd__nand2_1
*I *941:Y O *D sky130_fd_sc_hd__nand2_1
*CAP
1 *943:A 0.000223318
2 *941:Y 0.000223318
3 *941:B *943:A 0
4 *64:17 *943:A 0
*RES
1 *941:Y *943:A 23.2607 
*END

*D_NET *362 0.000747082
*CONN
*I *943:B I *D sky130_fd_sc_hd__nand2_1
*I *942:Y O *D sky130_fd_sc_hd__nand2_1
*CAP
1 *943:B 0.000373541
2 *942:Y 0.000373541
3 *81:8 *943:B 0
4 *204:310 *943:B 0
5 *204:312 *943:B 0
*RES
1 *942:Y *943:B 35.5286 
*END

*D_NET *363 0.000210484
*CONN
*I *946:A I *D sky130_fd_sc_hd__nand2_1
*I *944:Y O *D sky130_fd_sc_hd__nand2_1
*CAP
1 *946:A 0.000105242
2 *944:Y 0.000105242
3 *946:A *946:B 0
4 *204:328 *946:A 0
*RES
1 *944:Y *946:A 20.7964 
*END

*D_NET *364 0.000407278
*CONN
*I *946:B I *D sky130_fd_sc_hd__nand2_1
*I *945:Y O *D sky130_fd_sc_hd__nand2_1
*CAP
1 *946:B 0.000203639
2 *945:Y 0.000203639
3 *946:A *946:B 0
4 *204:328 *946:B 0
*RES
1 *945:Y *946:B 22.85 
*END

*D_NET *365 0.000150227
*CONN
*I *949:A2 I *D sky130_fd_sc_hd__o21ai_0
*I *947:Y O *D sky130_fd_sc_hd__nand2_1
*CAP
1 *949:A2 7.51134e-05
2 *947:Y 7.51134e-05
3 *949:A2 *947:A 0
4 *246:222 *949:A2 0
*RES
1 *947:Y *949:A2 29.2429 
*END

*D_NET *366 0.000196059
*CONN
*I *949:B1 I *D sky130_fd_sc_hd__o21ai_0
*I *948:Y O *D sky130_fd_sc_hd__nand2_1
*CAP
1 *949:B1 9.80294e-05
2 *948:Y 9.80294e-05
3 *949:B1 *947:A 0
4 *949:B1 *948:A 0
5 *947:B *949:B1 0
*RES
1 *948:Y *949:B1 29.7786 
*END

*D_NET *367 0.000144721
*CONN
*I *952:A I *D sky130_fd_sc_hd__nand2_1
*I *950:Y O *D sky130_fd_sc_hd__nand2_1
*CAP
1 *952:A 7.23606e-05
2 *950:Y 7.23606e-05
3 *952:A *952:B 0
4 *246:231 *952:A 0
*RES
1 *950:Y *952:A 29.2429 
*END

*D_NET *368 0.000171463
*CONN
*I *952:B I *D sky130_fd_sc_hd__nand2_1
*I *951:Y O *D sky130_fd_sc_hd__nand2_1
*CAP
1 *952:B 8.57316e-05
2 *951:Y 8.57316e-05
3 *952:A *952:B 0
4 *1143:D *952:B 0
5 *246:231 *952:B 0
*RES
1 *951:Y *952:B 29.5464 
*END

*D_NET *369 0.000644869
*CONN
*I *955:A2 I *D sky130_fd_sc_hd__o21ai_0
*I *953:Y O *D sky130_fd_sc_hd__nand2_1
*CAP
1 *955:A2 0.000322435
2 *953:Y 0.000322435
3 *955:A2 *759:C 0
4 *955:A2 *956:A 0
5 *955:A2 *957:A 0
6 *955:A2 *958:A2 0
7 *955:A2 *958:B1 0
8 *68:16 *955:A2 0
9 *203:244 *955:A2 0
10 *246:249 *955:A2 0
*RES
1 *953:Y *955:A2 43.5464 
*END

*D_NET *370 0.000653858
*CONN
*I *955:B1 I *D sky130_fd_sc_hd__o21ai_0
*I *954:Y O *D sky130_fd_sc_hd__nand2_1
*CAP
1 *955:B1 0.000326929
2 *954:Y 0.000326929
3 *955:B1 *747:D 0
4 *955:B1 *951:A 0
5 *955:B1 *958:A2 0
6 *955:A1 *955:B1 0
7 *1143:D *955:B1 0
8 *1145:D *955:B1 0
9 *68:16 *955:B1 0
10 *203:244 *955:B1 0
*RES
1 *954:Y *955:B1 37.3133 
*END

*D_NET *371 0.00032856
*CONN
*I *958:A2 I *D sky130_fd_sc_hd__o21ai_0
*I *956:Y O *D sky130_fd_sc_hd__nand2_1
*CAP
1 *958:A2 0.00016428
2 *956:Y 0.00016428
3 *958:A2 *956:A 0
4 *955:A2 *958:A2 0
5 *955:B1 *958:A2 0
6 *68:16 *958:A2 0
7 *203:244 *958:A2 0
*RES
1 *956:Y *958:A2 22.0286 
*END

*D_NET *372 0.000378791
*CONN
*I *958:B1 I *D sky130_fd_sc_hd__o21ai_0
*I *957:Y O *D sky130_fd_sc_hd__nand2_1
*CAP
1 *958:B1 0.000189396
2 *957:Y 0.000189396
3 *958:B1 *759:C 0
4 *958:B1 *957:A 0
5 *953:B *958:B1 0
6 *955:A2 *958:B1 0
7 *204:370 *958:B1 0
*RES
1 *957:Y *958:B1 31.7071 
*END

*D_NET *373 0.000531344
*CONN
*I *961:A I *D sky130_fd_sc_hd__nand2_1
*I *959:Y O *D sky130_fd_sc_hd__nand2_1
*CAP
1 *961:A 0.000265672
2 *959:Y 0.000265672
3 *961:A *967:B 0
4 *761:D *961:A 0
5 *959:B *961:A 0
6 *203:219 *961:A 0
*RES
1 *959:Y *961:A 24.4214 
*END

*D_NET *374 0.000543621
*CONN
*I *961:B I *D sky130_fd_sc_hd__nand2_1
*I *960:Y O *D sky130_fd_sc_hd__nand2_1
*CAP
1 *961:B 0.000271811
2 *960:Y 0.000271811
3 *961:B *960:A 0
4 *961:B *964:A2 0
5 *961:B *515:21 0
*RES
1 *960:Y *961:B 33.3679 
*END

*D_NET *375 0.000395299
*CONN
*I *964:A2 I *D sky130_fd_sc_hd__o21ai_0
*I *962:Y O *D sky130_fd_sc_hd__nand2_1
*CAP
1 *964:A2 0.00019765
2 *962:Y 0.00019765
3 *964:A2 *960:A 0
4 *964:A2 *963:A 0
5 *964:A2 *964:B1 0
6 *960:B *964:A2 0
7 *961:B *964:A2 0
*RES
1 *962:Y *964:A2 22.9125 
*END

*D_NET *376 0.000208773
*CONN
*I *964:B1 I *D sky130_fd_sc_hd__o21ai_0
*I *963:Y O *D sky130_fd_sc_hd__nand2_1
*CAP
1 *964:B1 0.000104386
2 *963:Y 0.000104386
3 *964:B1 *963:A 0
4 *964:A2 *964:B1 0
*RES
1 *963:Y *964:B1 20.7786 
*END

*D_NET *377 0.000641673
*CONN
*I *967:A I *D sky130_fd_sc_hd__nand2_1
*I *965:Y O *D sky130_fd_sc_hd__nand2_1
*CAP
1 *967:A 0.000320837
2 *965:Y 0.000320837
3 *967:A *967:B 0
4 *967:A *515:21 0
5 *960:B *967:A 0
6 *965:B *967:A 0
7 *203:219 *967:A 0
*RES
1 *965:Y *967:A 34.4214 
*END

*D_NET *378 0.000406425
*CONN
*I *967:B I *D sky130_fd_sc_hd__nand2_1
*I *966:Y O *D sky130_fd_sc_hd__nand2_1
*CAP
1 *967:B 0.000203212
2 *966:Y 0.000203212
3 *961:A *967:B 0
4 *967:A *967:B 0
*RES
1 *966:Y *967:B 31.975 
*END

*D_NET *379 0.000336261
*CONN
*I *970:A2 I *D sky130_fd_sc_hd__o21ai_0
*I *968:Y O *D sky130_fd_sc_hd__nand2_1
*CAP
1 *970:A2 0.000168131
2 *968:Y 0.000168131
3 *970:A2 *988:A2 0
4 *970:A1 *970:A2 0
5 *246:274 *970:A2 0
*RES
1 *968:Y *970:A2 22.1714 
*END

*D_NET *380 0.000208773
*CONN
*I *970:B1 I *D sky130_fd_sc_hd__o21ai_0
*I *969:Y O *D sky130_fd_sc_hd__nand2_1
*CAP
1 *970:B1 0.000104386
2 *969:Y 0.000104386
3 *970:B1 *515:9 0
*RES
1 *969:Y *970:B1 20.7786 
*END

*D_NET *381 0.00083125
*CONN
*I *973:A I *D sky130_fd_sc_hd__nand2_1
*I *971:Y O *D sky130_fd_sc_hd__nand2_1
*CAP
1 *973:A 0.000415625
2 *971:Y 0.000415625
3 *973:A *973:B 0
4 *973:A *974:A 0
5 *973:A *975:A 0
6 *52:12 *973:A 0
7 *204:537 *973:A 0
8 *204:545 *973:A 0
*RES
1 *971:Y *973:A 36.4571 
*END

*D_NET *382 0.000137756
*CONN
*I *973:B I *D sky130_fd_sc_hd__nand2_1
*I *972:Y O *D sky130_fd_sc_hd__nand2_1
*CAP
1 *973:B 6.88779e-05
2 *972:Y 6.88779e-05
3 *973:B *974:A 0
4 *973:A *973:B 0
*RES
1 *972:Y *973:B 19.975 
*END

*D_NET *383 0.00019598
*CONN
*I *976:A2 I *D sky130_fd_sc_hd__o21ai_0
*I *974:Y O *D sky130_fd_sc_hd__nand2_1
*CAP
1 *976:A2 9.799e-05
2 *974:Y 9.799e-05
3 *976:A2 *976:B1 0
4 *52:12 *976:A2 0
5 *203:98 *976:A2 0
*RES
1 *974:Y *976:A2 29.7786 
*END

*D_NET *384 0.00026212
*CONN
*I *976:B1 I *D sky130_fd_sc_hd__o21ai_0
*I *975:Y O *D sky130_fd_sc_hd__nand2_1
*CAP
1 *976:B1 0.00013106
2 *975:Y 0.00013106
3 *976:B1 *974:A 0
4 *976:A2 *976:B1 0
5 *1148:D *976:B1 0
6 *1151:D *976:B1 0
7 *203:98 *976:B1 0
*RES
1 *975:Y *976:B1 30.4929 
*END

*D_NET *385 0.00142262
*CONN
*I *979:A I *D sky130_fd_sc_hd__nand2_1
*I *977:Y O *D sky130_fd_sc_hd__nand2_1
*CAP
1 *979:A 0.000711311
2 *977:Y 0.000711311
3 *979:A uo_out[0] 0
4 *979:A *670:B2 0
5 *132:76 *979:A 0
*RES
1 *977:Y *979:A 46.0026 
*END

*D_NET *386 0.000407278
*CONN
*I *979:B I *D sky130_fd_sc_hd__nand2_1
*I *978:Y O *D sky130_fd_sc_hd__nand2_1
*CAP
1 *979:B 0.000203639
2 *978:Y 0.000203639
3 *978:B *979:B 0
*RES
1 *978:Y *979:B 22.85 
*END

*D_NET *387 0.000249843
*CONN
*I *982:A2 I *D sky130_fd_sc_hd__o21ai_0
*I *980:Y O *D sky130_fd_sc_hd__nand2_1
*CAP
1 *982:A2 0.000124921
2 *980:Y 0.000124921
3 *982:A2 *980:A 0
*RES
1 *980:Y *982:A2 21.2071 
*END

*D_NET *388 0.00015007
*CONN
*I *982:B1 I *D sky130_fd_sc_hd__o21ai_0
*I *981:Y O *D sky130_fd_sc_hd__nand2_1
*CAP
1 *982:B1 7.50348e-05
2 *981:Y 7.50348e-05
3 *982:B1 *534:8 0
4 *246:34 *982:B1 0
*RES
1 *981:Y *982:B1 29.2429 
*END

*D_NET *389 0.00100496
*CONN
*I *985:A I *D sky130_fd_sc_hd__nand2_1
*I *983:Y O *D sky130_fd_sc_hd__nand2_1
*CAP
1 *985:A 0.000502478
2 *983:Y 0.000502478
3 *985:A *456:66 0
4 *667:C2 *985:A 0
5 *145:38 *985:A 0
6 *145:54 *985:A 0
7 *149:22 *985:A 0
*RES
1 *983:Y *985:A 38.3143 
*END

*D_NET *390 0.000367919
*CONN
*I *985:B I *D sky130_fd_sc_hd__nand2_1
*I *984:Y O *D sky130_fd_sc_hd__nand2_1
*CAP
1 *985:B 0.00018396
2 *984:Y 0.00018396
3 *985:B *688:C1 0
4 *723:A1 *985:B 0
5 *1154:D *985:B 0
6 *145:54 *985:B 0
*RES
1 *984:Y *985:B 22.4393 
*END

*D_NET *391 0.000326718
*CONN
*I *988:A2 I *D sky130_fd_sc_hd__o21ai_0
*I *986:Y O *D sky130_fd_sc_hd__nand2_1
*CAP
1 *988:A2 0.000163359
2 *986:Y 0.000163359
3 *988:A2 *748:A 0
4 *988:A2 *986:A 0
5 *988:A2 *988:B1 0
6 *970:A1 *988:A2 0
7 *970:A2 *988:A2 0
8 *203:223 *988:A2 0
*RES
1 *986:Y *988:A2 31.2786 
*END

*D_NET *392 0.000171227
*CONN
*I *988:B1 I *D sky130_fd_sc_hd__o21ai_0
*I *987:Y O *D sky130_fd_sc_hd__nand2_1
*CAP
1 *988:B1 8.56136e-05
2 *987:Y 8.56136e-05
3 *988:B1 *748:A 0
4 *988:A2 *988:B1 0
*RES
1 *987:Y *988:B1 29.5464 
*END

*D_NET *393 0.000357652
*CONN
*I *991:A I *D sky130_fd_sc_hd__nand2_1
*I *989:Y O *D sky130_fd_sc_hd__nand2_1
*CAP
1 *991:A 0.000178826
2 *989:Y 0.000178826
3 *991:A *990:A 0
4 *991:A *991:B 0
5 *204:414 *991:A 0
*RES
1 *989:Y *991:A 22.3321 
*END

*D_NET *394 0.00027263
*CONN
*I *991:B I *D sky130_fd_sc_hd__nand2_1
*I *990:Y O *D sky130_fd_sc_hd__nand2_1
*CAP
1 *991:B 0.000136315
2 *990:Y 0.000136315
3 *991:B *504:37 0
4 *991:A *991:B 0
5 *203:225 *991:B 0
*RES
1 *990:Y *991:B 30.5286 
*END

*D_NET *395 0.00114067
*CONN
*I *994:A2 I *D sky130_fd_sc_hd__o21ai_0
*I *992:Y O *D sky130_fd_sc_hd__nand2_1
*CAP
1 *994:A2 0.000570335
2 *992:Y 0.000570335
3 *994:A2 *994:B1 0
4 *203:329 *994:A2 0
5 *246:189 *994:A2 0
*RES
1 *992:Y *994:A2 39.6357 
*END

*D_NET *396 0.000869683
*CONN
*I *994:B1 I *D sky130_fd_sc_hd__o21ai_0
*I *993:Y O *D sky130_fd_sc_hd__nand2_1
*CAP
1 *994:B1 0.000434841
2 *993:Y 0.000434841
3 *993:B *994:B1 0
4 *994:A2 *994:B1 0
5 *246:189 *994:B1 0
*RES
1 *993:Y *994:B1 37.0286 
*END

*D_NET *397 0.000458953
*CONN
*I *997:A I *D sky130_fd_sc_hd__nand2_1
*I *995:Y O *D sky130_fd_sc_hd__nand2_1
*CAP
1 *997:A 0.000229477
2 *995:Y 0.000229477
*RES
1 *995:Y *997:A 32.5464 
*END

*D_NET *398 0.000314135
*CONN
*I *997:B I *D sky130_fd_sc_hd__nand2_1
*I *996:Y O *D sky130_fd_sc_hd__nand2_1
*CAP
1 *997:B 0.000157068
2 *996:Y 0.000157068
3 *995:B *997:B 0
4 *1158:D *997:B 0
5 *203:596 *997:B 0
*RES
1 *996:Y *997:B 31.0107 
*END

*D_NET *399 0.000570331
*CONN
*I *1000:A2 I *D sky130_fd_sc_hd__o21ai_0
*I *998:Y O *D sky130_fd_sc_hd__nand2_1
*CAP
1 *1000:A2 0.000285165
2 *998:Y 0.000285165
3 *1000:A2 *1000:B1 0
4 *1000:A2 *1036:B1 0
5 *1000:A2 *522:14 0
6 *1000:A2 *523:11 0
7 *1036:A1 *1000:A2 0
8 *1159:D *1000:A2 0
9 *203:860 *1000:A2 0
10 *246:155 *1000:A2 0
*RES
1 *998:Y *1000:A2 34.0464 
*END

*D_NET *400 0.000382037
*CONN
*I *1000:B1 I *D sky130_fd_sc_hd__o21ai_0
*I *999:Y O *D sky130_fd_sc_hd__nand2_1
*CAP
1 *1000:B1 0.000191019
2 *999:Y 0.000191019
3 *1000:A2 *1000:B1 0
4 *1036:A1 *1000:B1 0
5 *1171:D *1000:B1 0
6 *246:155 *1000:B1 0
*RES
1 *999:Y *1000:B1 22.8902 
*END

*D_NET *401 0.000210484
*CONN
*I *1003:A I *D sky130_fd_sc_hd__nand2_1
*I *1001:Y O *D sky130_fd_sc_hd__nand2_1
*CAP
1 *1003:A 0.000105242
2 *1001:Y 0.000105242
3 *1003:A *1001:A 0
4 *1003:A *1003:B 0
5 *1003:A *509:19 0
6 *1002:B *1003:A 0
7 *1160:D *1003:A 0
8 *246:155 *1003:A 0
*RES
1 *1001:Y *1003:A 20.7964 
*END

*D_NET *402 0.000289202
*CONN
*I *1003:B I *D sky130_fd_sc_hd__nand2_1
*I *1002:Y O *D sky130_fd_sc_hd__nand2_1
*CAP
1 *1003:B 0.000144601
2 *1002:Y 0.000144601
3 *1003:B *1001:A 0
4 *1002:B *1003:B 0
5 *1003:A *1003:B 0
6 *1160:D *1003:B 0
7 *246:155 *1003:B 0
*RES
1 *1002:Y *1003:B 21.6179 
*END

*D_NET *403 0.000365473
*CONN
*I *1006:A2 I *D sky130_fd_sc_hd__o21ai_0
*I *1004:Y O *D sky130_fd_sc_hd__nand2_1
*CAP
1 *1006:A2 0.000182736
2 *1004:Y 0.000182736
3 *824:B *1006:A2 0
4 *99:14 *1006:A2 0
5 *203:602 *1006:A2 0
*RES
1 *1004:Y *1006:A2 31.5464 
*END

*D_NET *404 9.06963e-05
*CONN
*I *1006:B1 I *D sky130_fd_sc_hd__o21ai_0
*I *1005:Y O *D sky130_fd_sc_hd__nand2_1
*CAP
1 *1006:B1 4.53482e-05
2 *1005:Y 4.53482e-05
3 *1006:B1 *510:18 0
4 *85:16 *1006:B1 0
*RES
1 *1005:Y *1006:B1 19.5464 
*END

*D_NET *405 0.000515257
*CONN
*I *1009:A I *D sky130_fd_sc_hd__nand2_1
*I *1007:Y O *D sky130_fd_sc_hd__nand2_1
*CAP
1 *1009:A 0.000257629
2 *1007:Y 0.000257629
3 *1009:A *752:D 0
4 *1009:A *755:C 0
5 *1009:A *481:38 0
6 *756:D *1009:A 0
7 *1007:B *1009:A 0
*RES
1 *1007:Y *1009:A 33.3321 
*END

*D_NET *406 0.000646147
*CONN
*I *1009:B I *D sky130_fd_sc_hd__nand2_1
*I *1008:Y O *D sky130_fd_sc_hd__nand2_1
*CAP
1 *1009:B 0.000323074
2 *1008:Y 0.000323074
3 *1009:B *651:A 0
4 *756:A *1009:B 0
5 *756:C *1009:B 0
6 *756:D *1009:B 0
7 *204:76 *1009:B 0
*RES
1 *1008:Y *1009:B 34.6714 
*END

*D_NET *407 0.000668364
*CONN
*I *1012:A2 I *D sky130_fd_sc_hd__o21ai_0
*I *1010:Y O *D sky130_fd_sc_hd__nand2_1
*CAP
1 *1012:A2 0.000334182
2 *1010:Y 0.000334182
3 *1012:A2 *697:C2 0
4 *1012:A2 *741:B 0
5 *1012:A2 *469:14 0
6 *1012:A1 *1012:A2 0
*RES
1 *1010:Y *1012:A2 34.7071 
*END

*D_NET *408 0.000324282
*CONN
*I *1012:B1 I *D sky130_fd_sc_hd__o21ai_0
*I *1011:Y O *D sky130_fd_sc_hd__nand2_1
*CAP
1 *1012:B1 0.000162141
2 *1011:Y 0.000162141
3 *1012:B1 *1011:A 0
4 *1012:A1 *1012:B1 0
*RES
1 *1011:Y *1012:B1 22.0464 
*END

*D_NET *409 0.000314056
*CONN
*I *1015:A I *D sky130_fd_sc_hd__nand2_1
*I *1013:Y O *D sky130_fd_sc_hd__nand2_1
*CAP
1 *1015:A 0.000157028
2 *1013:Y 0.000157028
3 *1015:A *757:C 0
4 *1015:A *538:15 0
5 *1015:A *550:19 0
*RES
1 *1013:Y *1015:A 31.0107 
*END

*D_NET *410 0.000340641
*CONN
*I *1015:B I *D sky130_fd_sc_hd__nand2_1
*I *1014:Y O *D sky130_fd_sc_hd__nand2_1
*CAP
1 *1015:B 0.000170321
2 *1014:Y 0.000170321
3 *1015:B *757:C 0
4 *204:508 *1015:B 0
*RES
1 *1014:Y *1015:B 31.3143 
*END

*D_NET *411 0.000210484
*CONN
*I *1018:A2 I *D sky130_fd_sc_hd__o21ai_0
*I *1016:Y O *D sky130_fd_sc_hd__nand2_1
*CAP
1 *1018:A2 0.000105242
2 *1016:Y 0.000105242
3 *1018:A2 *1016:A 0
4 *203:90 *1018:A2 0
*RES
1 *1016:Y *1018:A2 20.7964 
*END

*D_NET *412 0.000130055
*CONN
*I *1018:B1 I *D sky130_fd_sc_hd__o21ai_0
*I *1017:Y O *D sky130_fd_sc_hd__nand2_1
*CAP
1 *1018:B1 6.50276e-05
2 *1017:Y 6.50276e-05
3 *1165:D *1018:B1 0
4 *203:90 *1018:B1 0
*RES
1 *1017:Y *1018:B1 19.9571 
*END

*D_NET *413 0.000685349
*CONN
*I *1021:A I *D sky130_fd_sc_hd__nand2_1
*I *1019:Y O *D sky130_fd_sc_hd__nand2_1
*CAP
1 *1021:A 0.000342674
2 *1019:Y 0.000342674
3 *1021:A *971:A 0
4 *1021:A *1019:A 0
5 *1021:A *526:13 0
6 *1166:D *1021:A 0
*RES
1 *1019:Y *1021:A 35.0821 
*END

*D_NET *414 0.000131766
*CONN
*I *1021:B I *D sky130_fd_sc_hd__nand2_1
*I *1020:Y O *D sky130_fd_sc_hd__nand2_1
*CAP
1 *1021:B 6.58832e-05
2 *1020:Y 6.58832e-05
3 *1021:B *526:13 0
4 *204:554 *1021:B 0
*RES
1 *1020:Y *1021:B 19.975 
*END

*D_NET *415 0.000210484
*CONN
*I *1024:A2 I *D sky130_fd_sc_hd__o21ai_0
*I *1022:Y O *D sky130_fd_sc_hd__nand2_1
*CAP
1 *1024:A2 0.000105242
2 *1022:Y 0.000105242
3 *1024:A2 *1024:B1 0
4 *1024:A2 *517:17 0
5 *1022:B *1024:A2 0
6 *1024:A1 *1024:A2 0
7 *246:213 *1024:A2 0
*RES
1 *1022:Y *1024:A2 20.7964 
*END

*D_NET *416 0.000208773
*CONN
*I *1024:B1 I *D sky130_fd_sc_hd__o21ai_0
*I *1023:Y O *D sky130_fd_sc_hd__nand2_1
*CAP
1 *1024:B1 0.000104386
2 *1023:Y 0.000104386
3 *1024:B1 *517:17 0
4 *1022:B *1024:B1 0
5 *1024:A2 *1024:B1 0
6 *246:213 *1024:B1 0
*RES
1 *1023:Y *1024:B1 20.7786 
*END

*D_NET *417 0.00033455
*CONN
*I *1027:A I *D sky130_fd_sc_hd__nand2_1
*I *1025:Y O *D sky130_fd_sc_hd__nand2_1
*CAP
1 *1027:A 0.000167275
2 *1025:Y 0.000167275
3 *204:320 *1027:A 0
4 *204:325 *1027:A 0
*RES
1 *1025:Y *1027:A 22.0286 
*END

*D_NET *418 0.000131766
*CONN
*I *1027:B I *D sky130_fd_sc_hd__nand2_1
*I *1026:Y O *D sky130_fd_sc_hd__nand2_1
*CAP
1 *1027:B 6.58832e-05
2 *1026:Y 6.58832e-05
*RES
1 *1026:Y *1027:B 19.975 
*END

*D_NET *419 0.000237008
*CONN
*I *1030:A2 I *D sky130_fd_sc_hd__o21ai_0
*I *1028:Y O *D sky130_fd_sc_hd__nand2_1
*CAP
1 *1030:A2 0.000118504
2 *1028:Y 0.000118504
3 *1030:A2 *929:A 0
4 *1030:A2 *1026:A 0
5 *246:211 *1030:A2 0
*RES
1 *1028:Y *1030:A2 21.35 
*END

*D_NET *420 0.000484972
*CONN
*I *1030:B1 I *D sky130_fd_sc_hd__o21ai_0
*I *1029:Y O *D sky130_fd_sc_hd__nand2_1
*CAP
1 *1030:B1 0.000242486
2 *1029:Y 0.000242486
3 *1030:B1 *944:A 0
4 *1030:B1 *1026:A 0
5 *1030:B1 *519:14 0
*RES
1 *1029:Y *1030:B1 36.2138 
*END

*D_NET *421 0.00078007
*CONN
*I *1033:A I *D sky130_fd_sc_hd__nand2_1
*I *1031:Y O *D sky130_fd_sc_hd__nand2_1
*CAP
1 *1033:A 0.000390035
2 *1031:Y 0.000390035
3 *1033:A *932:A 0
4 *1033:A *1029:A 0
5 *1033:A *1033:B 0
6 *932:B *1033:A 0
7 *934:B1 *1033:A 0
8 *1032:B *1033:A 0
9 *1136:D *1033:A 0
*RES
1 *1031:Y *1033:A 35.8679 
*END

*D_NET *422 0.000375192
*CONN
*I *1033:B I *D sky130_fd_sc_hd__nand2_1
*I *1032:Y O *D sky130_fd_sc_hd__nand2_1
*CAP
1 *1033:B 0.000187596
2 *1032:Y 0.000187596
3 *1033:A *1033:B 0
4 *1136:D *1033:B 0
*RES
1 *1032:Y *1033:B 22.5911 
*END

*D_NET *423 0.000802074
*CONN
*I *1036:A2 I *D sky130_fd_sc_hd__o21ai_0
*I *1034:Y O *D sky130_fd_sc_hd__nand2_1
*CAP
1 *1036:A2 0.000401037
2 *1034:Y 0.000401037
3 *1036:A2 *731:A 0
4 *1036:A2 *1036:B1 0
5 *1036:A2 *1037:A 0
6 *1036:A2 *1039:A 0
7 *1036:A2 *522:14 0
8 *1036:A2 *523:11 0
9 *1037:B *1036:A2 0
10 *203:864 *1036:A2 0
*RES
1 *1034:Y *1036:A2 36.225 
*END

*D_NET *424 0.000196059
*CONN
*I *1036:B1 I *D sky130_fd_sc_hd__o21ai_0
*I *1035:Y O *D sky130_fd_sc_hd__nand2_1
*CAP
1 *1036:B1 9.80294e-05
2 *1035:Y 9.80294e-05
3 *1000:A2 *1036:B1 0
4 *1036:A2 *1036:B1 0
5 *203:860 *1036:B1 0
*RES
1 *1035:Y *1036:B1 29.7786 
*END

*D_NET *425 0.000210484
*CONN
*I *1039:A I *D sky130_fd_sc_hd__nand2_1
*I *1037:Y O *D sky130_fd_sc_hd__nand2_1
*CAP
1 *1039:A 0.000105242
2 *1037:Y 0.000105242
3 *1039:A *1037:A 0
4 *1035:B *1039:A 0
5 *1036:A2 *1039:A 0
6 *1037:B *1039:A 0
7 *203:860 *1039:A 0
*RES
1 *1037:Y *1039:A 20.7964 
*END

*D_NET *426 0.000144721
*CONN
*I *1039:B I *D sky130_fd_sc_hd__nand2_1
*I *1038:Y O *D sky130_fd_sc_hd__nand2_1
*CAP
1 *1039:B 7.23606e-05
2 *1038:Y 7.23606e-05
3 *1039:B *733:A 0
4 *1039:B *733:B 0
5 *1042:A1 *1039:B 0
*RES
1 *1038:Y *1039:B 29.2429 
*END

*D_NET *427 0.000169414
*CONN
*I *1042:A2 I *D sky130_fd_sc_hd__o21ai_0
*I *1040:Y O *D sky130_fd_sc_hd__nand2_1
*CAP
1 *1042:A2 8.4707e-05
2 *1040:Y 8.4707e-05
3 *1042:A2 *1040:A 0
4 *1042:A1 *1042:A2 0
*RES
1 *1040:Y *1042:A2 20.3679 
*END

*D_NET *428 9.06964e-05
*CONN
*I *1042:B1 I *D sky130_fd_sc_hd__o21ai_0
*I *1041:Y O *D sky130_fd_sc_hd__nand2_1
*CAP
1 *1042:B1 4.53482e-05
2 *1041:Y 4.53482e-05
3 *97:10 *1042:B1 0
*RES
1 *1041:Y *1042:B1 19.5464 
*END

*D_NET *429 0.000564713
*CONN
*I *1045:A I *D sky130_fd_sc_hd__nand2_1
*I *1043:Y O *D sky130_fd_sc_hd__nand2_1
*CAP
1 *1045:A 0.000282357
2 *1043:Y 0.000282357
3 *1045:A *1045:B 0
4 *1045:A *1046:A 0
5 *203:630 *1045:A 0
*RES
1 *1043:Y *1045:A 24.4929 
*END

*D_NET *430 0.000131766
*CONN
*I *1045:B I *D sky130_fd_sc_hd__nand2_1
*I *1044:Y O *D sky130_fd_sc_hd__nand2_1
*CAP
1 *1045:B 6.58832e-05
2 *1044:Y 6.58832e-05
3 *1045:A *1045:B 0
4 *1046:B *1045:B 0
5 *203:630 *1045:B 0
6 *204:224 *1045:B 0
*RES
1 *1044:Y *1045:B 19.975 
*END

*D_NET *431 0.000518551
*CONN
*I *1048:A2 I *D sky130_fd_sc_hd__o21ai_0
*I *1046:Y O *D sky130_fd_sc_hd__nand2_1
*CAP
1 *1048:A2 0.000259276
2 *1046:Y 0.000259276
3 *1048:A2 *1048:B1 0
4 *1048:A2 *527:22 0
5 *1048:A2 *527:26 0
6 *1047:B *1048:A2 0
7 *99:14 *1048:A2 0
*RES
1 *1046:Y *1048:A2 33.2071 
*END

*D_NET *432 0.000249843
*CONN
*I *1048:B1 I *D sky130_fd_sc_hd__o21ai_0
*I *1047:Y O *D sky130_fd_sc_hd__nand2_1
*CAP
1 *1048:B1 0.000124921
2 *1047:Y 0.000124921
3 *1048:B1 *527:26 0
4 *1047:B *1048:B1 0
5 *1048:A2 *1048:B1 0
*RES
1 *1047:Y *1048:B1 21.2071 
*END

*D_NET *433 0.000920299
*CONN
*I *1051:A I *D sky130_fd_sc_hd__nand2_1
*I *1049:Y O *D sky130_fd_sc_hd__nand2_1
*CAP
1 *1051:A 0.000460149
2 *1049:Y 0.000460149
3 *1051:A *1051:B 0
4 *847:A1 *1051:A 0
5 *847:A2 *1051:A 0
6 *1176:D *1051:A 0
7 *203:685 *1051:A 0
8 *204:156 *1051:A 0
9 *204:875 *1051:A 0
*RES
1 *1049:Y *1051:A 37.5464 
*END

*D_NET *434 0.000328463
*CONN
*I *1051:B I *D sky130_fd_sc_hd__nand2_1
*I *1050:Y O *D sky130_fd_sc_hd__nand2_1
*CAP
1 *1051:B 0.000164232
2 *1050:Y 0.000164232
3 *1051:A *1051:B 0
4 *1176:D *1051:B 0
5 *204:875 *1051:B 0
*RES
1 *1050:Y *1051:B 31.1357 
*END

*D_NET *435 0.000488712
*CONN
*I *1054:A2 I *D sky130_fd_sc_hd__o21ai_0
*I *1052:Y O *D sky130_fd_sc_hd__nand2_1
*CAP
1 *1054:A2 0.000244356
2 *1052:Y 0.000244356
3 *203:976 *1054:A2 0
4 *203:1079 *1054:A2 0
5 *246:608 *1054:A2 0
*RES
1 *1052:Y *1054:A2 33.0286 
*END

*D_NET *436 9.06964e-05
*CONN
*I *1054:B1 I *D sky130_fd_sc_hd__o21ai_0
*I *1053:Y O *D sky130_fd_sc_hd__nand2_1
*CAP
1 *1054:B1 4.53482e-05
2 *1053:Y 4.53482e-05
3 *1054:B1 *1053:A 0
*RES
1 *1053:Y *1054:B1 19.5464 
*END

*D_NET *437 0.00793768
*CONN
*I *1078:B I *D sky130_fd_sc_hd__nor2_1
*I *1059:C I *D sky130_fd_sc_hd__nor3_1
*I *1058:A4 I *D sky130_fd_sc_hd__o41ai_1
*I *1065:A2 I *D sky130_fd_sc_hd__a21boi_0
*I *1056:X O *D sky130_fd_sc_hd__lpflow_inputiso1p_1
*CAP
1 *1078:B 0.000183143
2 *1059:C 0
3 *1058:A4 0.000141178
4 *1065:A2 0.0027279
5 *1056:X 0.000156116
6 *437:37 0.000878082
7 *437:27 0.000943642
8 *437:6 0.00290761
9 *1058:A4 *1058:A1 0
10 *1065:A2 uio_out[4] 0
11 *1065:A2 *1077:A4 0
12 *1065:A2 *537:36 0
13 *1065:A2 *547:47 0
14 *1065:A2 *563:14 0
15 *1078:B *558:39 0
16 *1078:B *611:58 0
17 *437:6 *611:58 0
18 *437:37 *1504:A 0
19 *437:37 *557:35 0
20 *643:A3 *1065:A2 0
21 *1058:A2 *1058:A4 0
22 *1060:A1 *1058:A4 0
23 *1119:D *1065:A2 0
24 *1183:D *1058:A4 0
25 *1189:D *1078:B 0
26 *113:24 *1065:A2 0
27 *119:13 *1065:A2 0
28 *127:20 *1065:A2 0
29 *127:20 *1078:B 0
*RES
1 *1056:X *437:6 17.4161 
2 *437:6 *1065:A2 30.3349 
3 *437:6 *437:27 0.535714 
4 *437:27 *437:37 29.0982 
5 *437:37 *1058:A4 12.4607 
6 *437:37 *1059:C 9.3 
7 *437:27 *1078:B 18.0232 
*END

*D_NET *438 0.000346225
*CONN
*I *1058:B1 I *D sky130_fd_sc_hd__o41ai_1
*I *1057:Y O *D sky130_fd_sc_hd__nand2_1
*CAP
1 *1058:B1 0.000173113
2 *1057:Y 0.000173113
3 *1058:B1 uo_out[5] 0
4 *1058:B1 *636:A 0
5 *119:8 *1058:B1 0
6 *119:13 *1058:B1 0
*RES
1 *1057:Y *1058:B1 31.3143 
*END

*D_NET *439 0.00124151
*CONN
*I *1060:A2 I *D sky130_fd_sc_hd__a21oi_1
*I *1061:B I *D sky130_fd_sc_hd__nand2_1
*I *1059:Y O *D sky130_fd_sc_hd__nor3_1
*CAP
1 *1060:A2 0.000193371
2 *1061:B 0.000224598
3 *1059:Y 0.000202783
4 *439:5 0.000620753
5 *1060:A2 *1063:A 0
6 *1061:B *626:A 0
7 *1061:B *1059:A 0
8 *1061:B *1063:B 0
9 *1061:B *556:33 0
10 *1061:B *594:8 0
11 *1060:A1 *1060:A2 0
12 *1060:A1 *439:5 0
*RES
1 *1059:Y *439:5 13.5321 
2 *439:5 *1061:B 23.3179 
3 *439:5 *1060:A2 13.4607 
*END

*D_NET *440 0.000408989
*CONN
*I *1063:A I *D sky130_fd_sc_hd__nor2_1
*I *1060:Y O *D sky130_fd_sc_hd__a21oi_1
*CAP
1 *1063:A 0.000204495
2 *1060:Y 0.000204495
3 *1060:A2 *1063:A 0
4 *1184:D *1063:A 0
*RES
1 *1060:Y *1063:A 22.8679 
*END

*D_NET *441 0.000131766
*CONN
*I *1062:B I *D sky130_fd_sc_hd__nand2_1
*I *1061:Y O *D sky130_fd_sc_hd__nand2_1
*CAP
1 *1062:B 6.58832e-05
2 *1061:Y 6.58832e-05
3 *1062:B *556:33 0
*RES
1 *1061:Y *1062:B 19.975 
*END

*D_NET *442 0.000515257
*CONN
*I *1063:B I *D sky130_fd_sc_hd__nor2_1
*I *1062:Y O *D sky130_fd_sc_hd__nand2_1
*CAP
1 *1063:B 0.000257629
2 *1062:Y 0.000257629
3 *1063:B *617:SLEEP 0
4 *1063:B *1060:B1 0
5 *1063:B *556:25 0
6 *1063:B *594:8 0
7 *1061:B *1063:B 0
*RES
1 *1062:Y *1063:B 33.3321 
*END

*D_NET *443 0.000484284
*CONN
*I *1066:A1 I *D sky130_fd_sc_hd__a21oi_1
*I *1064:Y O *D sky130_fd_sc_hd__nand2_1
*CAP
1 *1066:A1 0.000242142
2 *1064:Y 0.000242142
3 *1075:B *1066:A1 0
4 *116:13 *1066:A1 0
*RES
1 *1064:Y *1066:A1 23.6536 
*END

*D_NET *444 0.000675837
*CONN
*I *1072:A1 I *D sky130_fd_sc_hd__o21ai_0
*I *1066:A2 I *D sky130_fd_sc_hd__a21oi_1
*I *1065:Y O *D sky130_fd_sc_hd__a21boi_0
*CAP
1 *1072:A1 7.50348e-05
2 *1066:A2 0.000237215
3 *1065:Y 2.56688e-05
4 *444:7 0.000337918
5 *1066:A2 *445:8 0
6 *1072:A1 *562:29 0
7 *1072:A1 *562:38 0
8 *1066:B1 *1066:A2 0
9 *1070:B *1066:A2 0
10 *1070:B *1072:A1 0
11 *113:15 *1066:A2 0
12 *116:13 *1066:A2 0
*RES
1 *1065:Y *444:7 14.3357 
2 *444:7 *1066:A2 19.0321 
3 *444:7 *1072:A1 15.4429 
*END

*D_NET *445 0.00151389
*CONN
*I *1074:B1 I *D sky130_fd_sc_hd__a22o_1
*I *1067:A0 I *D sky130_fd_sc_hd__mux2_1
*I *1066:Y O *D sky130_fd_sc_hd__a21oi_1
*CAP
1 *1074:B1 0.000373647
2 *1067:A0 0
3 *1066:Y 0.000383297
4 *445:8 0.000756945
5 *1074:B1 *632:A2 0
6 *1074:B1 *1074:A1 0
7 *1074:B1 *561:28 0
8 *445:8 *1077:B1 0
9 *1066:A2 *445:8 0
10 *1075:B *445:8 0
11 *1187:D *1074:B1 0
12 *105:12 *1074:B1 0
13 *113:35 *445:8 0
14 *127:56 *1074:B1 0
*RES
1 *1066:Y *445:8 21.925 
2 *445:8 *1067:A0 13.8 
3 *445:8 *1074:B1 22.0857 
*END

*D_NET *446 9.06964e-05
*CONN
*I *1072:B1 I *D sky130_fd_sc_hd__o21ai_0
*I *1068:Y O *D sky130_fd_sc_hd__nand2_1
*CAP
1 *1072:B1 4.53482e-05
2 *1068:Y 4.53482e-05
3 *1072:B1 *1077:A4 0
*RES
1 *1068:Y *1072:B1 19.5464 
*END

*D_NET *447 0.000702912
*CONN
*I *1071:A I *D sky130_fd_sc_hd__nand2_1
*I *1073:B I *D sky130_fd_sc_hd__xnor2_1
*I *1069:Y O *D sky130_fd_sc_hd__nand2_1
*CAP
1 *1071:A 0.000174709
2 *1073:B 0.000104386
3 *1069:Y 7.23606e-05
4 *447:6 0.000351456
5 *1071:A *623:A 0
6 *1071:A *1071:B 0
7 *1071:A *1072:A2 0
8 *1073:B *623:B 0
9 *1073:B *1071:B 0
10 *1073:B *1074:B2 0
11 *1073:B *561:49 0
12 *447:6 *623:A 0
13 *447:6 *1072:A2 0
14 *447:6 *562:29 0
*RES
1 *1069:Y *447:6 15.4429 
2 *447:6 *1073:B 15.9786 
3 *447:6 *1071:A 17.7107 
*END

*D_NET *448 0.00047756
*CONN
*I *1071:B I *D sky130_fd_sc_hd__nand2_1
*I *1070:Y O *D sky130_fd_sc_hd__nor2_1
*CAP
1 *1071:B 0.00023878
2 *1070:Y 0.00023878
3 *1071:B *623:B 0
4 *1071:B *1072:A2 0
5 *1071:B *561:49 0
6 *1070:A *1071:B 0
7 *1071:A *1071:B 0
8 *1073:B *1071:B 0
*RES
1 *1070:Y *1071:B 32.6536 
*END

*D_NET *449 0.00090436
*CONN
*I *1072:A2 I *D sky130_fd_sc_hd__o21ai_0
*I *1071:Y O *D sky130_fd_sc_hd__nand2_1
*CAP
1 *1072:A2 0.00045218
2 *1071:Y 0.00045218
3 *1072:A2 *631:B 0
4 *1072:A2 *1077:A4 0
5 *1072:A2 *561:38 0
6 *1072:A2 *561:45 0
7 *1072:A2 *562:29 0
8 *1072:A2 *562:38 0
9 *1071:A *1072:A2 0
10 *1071:B *1072:A2 0
11 *447:6 *1072:A2 0
*RES
1 *1071:Y *1072:A2 37.5107 
*END

*D_NET *450 0.00075124
*CONN
*I *1074:B2 I *D sky130_fd_sc_hd__a22o_1
*I *1073:Y O *D sky130_fd_sc_hd__xnor2_1
*CAP
1 *1074:B2 0.00037562
2 *1073:Y 0.00037562
3 *1074:B2 *1074:A1 0
4 *1070:A *1074:B2 0
5 *1070:B *1074:B2 0
6 *1073:B *1074:B2 0
*RES
1 *1073:Y *1074:B2 26.4393 
*END

*D_NET *451 0.000364194
*CONN
*I *1077:B1 I *D sky130_fd_sc_hd__o41ai_1
*I *1075:Y O *D sky130_fd_sc_hd__nand2_1
*CAP
1 *1077:B1 0.000182097
2 *1075:Y 0.000182097
3 *1077:B1 *1077:A4 0
4 *1065:B1_N *1077:B1 0
5 *108:11 *1077:B1 0
6 *113:24 *1077:B1 0
7 *113:35 *1077:B1 0
8 *445:8 *1077:B1 0
*RES
1 *1075:Y *1077:B1 31.4393 
*END

*D_NET *452 0.00112045
*CONN
*I *1077:A4 I *D sky130_fd_sc_hd__o41ai_1
*I *1076:Y O *D sky130_fd_sc_hd__a21oi_1
*CAP
1 *1077:A4 0.000560226
2 *1076:Y 0.000560226
3 *1077:A4 *631:B 0
4 *1077:A4 *1069:B 0
5 *1077:A4 *561:38 0
6 *1077:A4 *561:45 0
7 *1077:A4 *561:73 0
8 *1077:A4 *562:38 0
9 *1065:A2 *1077:A4 0
10 *1068:B *1077:A4 0
11 *1070:B *1077:A4 0
12 *1072:A2 *1077:A4 0
13 *1072:B1 *1077:A4 0
14 *1074:A2 *1077:A4 0
15 *1076:B1 *1077:A4 0
16 *1077:B1 *1077:A4 0
17 *105:12 *1077:A4 0
*RES
1 *1076:Y *1077:A4 39.6 
*END

*D_NET *453 0.000248132
*CONN
*I *1079:B1 I *D sky130_fd_sc_hd__a22o_1
*I *1078:Y O *D sky130_fd_sc_hd__nor2_1
*CAP
1 *1079:B1 0.000124066
2 *1078:Y 0.000124066
3 *127:11 *1079:B1 0
*RES
1 *1078:Y *1079:B1 21.1893 
*END

*D_NET *454 0.00834253
*CONN
*P clk I
*I *1504:A I *D sky130_fd_sc_hd__clkbuf_16
*CAP
1 clk 0.00269688
2 *1504:A 0.00147439
3 *454:10 0.00417127
4 *1504:A uo_out[5] 0
5 *1504:A *626:A 0
6 *1504:A *626:B 0
7 *1504:A *640:A 0
8 *1504:A *709:A1 0
9 *1504:A *742:A 0
10 *1504:A *513:53 0
11 *1504:A *567:27 0
12 *1504:A *567:119 0
13 *454:10 uio_out[2] 0
14 *454:10 uio_out[4] 0
15 *454:10 uo_out[0] 0
16 *454:10 *556:14 0
17 *454:10 *567:12 0
18 *454:10 *567:17 0
19 *454:10 *571:11 0
20 *454:10 *572:11 0
21 *454:10 *591:9 0
22 *655:B *1504:A 0
23 *661:A *1504:A 0
24 *696:C1 *1504:A 0
25 *708:A1 *1504:A 0
26 *1060:A1 *1504:A 0
27 *1182:D *1504:A 0
28 *1183:D *1504:A 0
29 *125:6 *1504:A 0
30 *145:8 *1504:A 0
31 *148:62 *1504:A 0
32 *189:22 *1504:A 0
33 *437:37 *1504:A 0
*RES
1 clk *454:10 16.6869 
2 *454:10 *1504:A 47.1661 
*END

*D_NET *455 0.0607751
*CONN
*I *1086:RESET_B I *D sky130_fd_sc_hd__dfrtp_1
*I *1087:RESET_B I *D sky130_fd_sc_hd__dfrtp_1
*I *1088:RESET_B I *D sky130_fd_sc_hd__dfrtp_1
*I *1177:RESET_B I *D sky130_fd_sc_hd__dfrtp_1
*I *1084:RESET_B I *D sky130_fd_sc_hd__dfrtp_1
*I *1082:RESET_B I *D sky130_fd_sc_hd__dfrtp_1
*I *1085:RESET_B I *D sky130_fd_sc_hd__dfrtp_1
*I *1153:RESET_B I *D sky130_fd_sc_hd__dfrtp_1
*I *1083:RESET_B I *D sky130_fd_sc_hd__dfrtp_1
*I *1090:RESET_B I *D sky130_fd_sc_hd__dfrtp_1
*I *1091:RESET_B I *D sky130_fd_sc_hd__dfrtp_1
*I *1113:RESET_B I *D sky130_fd_sc_hd__dfrtp_1
*I *1098:RESET_B I *D sky130_fd_sc_hd__dfrtp_1
*I *1112:RESET_B I *D sky130_fd_sc_hd__dfrtp_1
*I *1162:RESET_B I *D sky130_fd_sc_hd__dfrtp_1
*I *1108:RESET_B I *D sky130_fd_sc_hd__dfrtp_1
*I *1104:RESET_B I *D sky130_fd_sc_hd__dfrtp_1
*I *1094:RESET_B I *D sky130_fd_sc_hd__dfrtp_1
*I *1102:RESET_B I *D sky130_fd_sc_hd__dfrtp_1
*I *1175:RESET_B I *D sky130_fd_sc_hd__dfrtp_1
*I *1160:RESET_B I *D sky130_fd_sc_hd__dfrtp_1
*I *1138:RESET_B I *D sky130_fd_sc_hd__dfrtp_1
*I *1170:RESET_B I *D sky130_fd_sc_hd__dfrtp_1
*I *1136:RESET_B I *D sky130_fd_sc_hd__dfrtp_1
*I *1137:RESET_B I *D sky130_fd_sc_hd__dfrtp_1
*I *1140:RESET_B I *D sky130_fd_sc_hd__dfrtp_1
*I *1139:RESET_B I *D sky130_fd_sc_hd__dfrtp_1
*I *1157:RESET_B I *D sky130_fd_sc_hd__dfrtp_1
*I *1169:RESET_B I *D sky130_fd_sc_hd__dfrtp_1
*I *1131:RESET_B I *D sky130_fd_sc_hd__dfrtp_1
*I *1168:RESET_B I *D sky130_fd_sc_hd__dfrtp_1
*I *1141:RESET_B I *D sky130_fd_sc_hd__dfrtp_1
*I *1172:RESET_B I *D sky130_fd_sc_hd__dfrtp_1
*I *1159:RESET_B I *D sky130_fd_sc_hd__dfrtp_1
*I *1171:RESET_B I *D sky130_fd_sc_hd__dfrtp_1
*I *1173:RESET_B I *D sky130_fd_sc_hd__dfrtp_1
*I *1101:RESET_B I *D sky130_fd_sc_hd__dfrtp_1
*I *1174:RESET_B I *D sky130_fd_sc_hd__dfrtp_1
*I *1158:RESET_B I *D sky130_fd_sc_hd__dfrtp_1
*I *1106:RESET_B I *D sky130_fd_sc_hd__dfrtp_1
*I *1107:RESET_B I *D sky130_fd_sc_hd__dfrtp_1
*I *1103:RESET_B I *D sky130_fd_sc_hd__dfrtp_1
*I *1093:RESET_B I *D sky130_fd_sc_hd__dfrtp_1
*I *1161:RESET_B I *D sky130_fd_sc_hd__dfrtp_1
*I *1105:RESET_B I *D sky130_fd_sc_hd__dfrtp_1
*I *1110:RESET_B I *D sky130_fd_sc_hd__dfrtp_1
*I *1109:RESET_B I *D sky130_fd_sc_hd__dfrtp_1
*I *1092:RESET_B I *D sky130_fd_sc_hd__dfrtp_1
*I *1096:RESET_B I *D sky130_fd_sc_hd__dfrtp_1
*I *1100:RESET_B I *D sky130_fd_sc_hd__dfrtp_1
*I *1095:RESET_B I *D sky130_fd_sc_hd__dfrtp_1
*I *1099:RESET_B I *D sky130_fd_sc_hd__dfrtp_1
*I *1111:RESET_B I *D sky130_fd_sc_hd__dfrtp_1
*I *1176:RESET_B I *D sky130_fd_sc_hd__dfrtp_1
*I *1114:RESET_B I *D sky130_fd_sc_hd__dfrtp_1
*I *1097:RESET_B I *D sky130_fd_sc_hd__dfrtp_1
*I *1089:RESET_B I *D sky130_fd_sc_hd__dfrtp_1
*I *1115:RESET_B I *D sky130_fd_sc_hd__dfrtp_1
*I *1116:RESET_B I *D sky130_fd_sc_hd__dfrtp_1
*I *1178:RESET_B I *D sky130_fd_sc_hd__dfrtp_1
*I *1081:SET_B I *D sky130_fd_sc_hd__dfstp_2
*I *1152:RESET_B I *D sky130_fd_sc_hd__dfrtp_1
*I *1163:RESET_B I *D sky130_fd_sc_hd__dfrtp_1
*I *1123:RESET_B I *D sky130_fd_sc_hd__dfrtp_1
*I *1119:RESET_B I *D sky130_fd_sc_hd__dfrtp_1
*I *1127:RESET_B I *D sky130_fd_sc_hd__dfrtp_1
*I *1118:RESET_B I *D sky130_fd_sc_hd__dfrtp_1
*I *1121:RESET_B I *D sky130_fd_sc_hd__dfrtp_1
*I *1124:RESET_B I *D sky130_fd_sc_hd__dfrtp_1
*I *1125:RESET_B I *D sky130_fd_sc_hd__dfrtp_1
*I *1120:RESET_B I *D sky130_fd_sc_hd__dfrtp_1
*I *1164:RESET_B I *D sky130_fd_sc_hd__dfrtp_1
*I *1165:RESET_B I *D sky130_fd_sc_hd__dfrtp_1
*I *1146:RESET_B I *D sky130_fd_sc_hd__dfrtp_1
*I *1130:RESET_B I *D sky130_fd_sc_hd__dfrtp_1
*I *1128:RESET_B I *D sky130_fd_sc_hd__dfrtp_1
*I *1151:RESET_B I *D sky130_fd_sc_hd__dfrtp_1
*I *1148:RESET_B I *D sky130_fd_sc_hd__dfrtp_1
*I *1129:RESET_B I *D sky130_fd_sc_hd__dfrtp_1
*I *1156:RESET_B I *D sky130_fd_sc_hd__dfrtp_1
*I *1132:RESET_B I *D sky130_fd_sc_hd__dfrtp_1
*I *1144:RESET_B I *D sky130_fd_sc_hd__dfrtp_1
*I *1145:RESET_B I *D sky130_fd_sc_hd__dfrtp_1
*I *1133:RESET_B I *D sky130_fd_sc_hd__dfrtp_1
*I *1135:RESET_B I *D sky130_fd_sc_hd__dfrtp_1
*I *1167:RESET_B I *D sky130_fd_sc_hd__dfrtp_1
*I *1134:RESET_B I *D sky130_fd_sc_hd__dfrtp_1
*I *1142:RESET_B I *D sky130_fd_sc_hd__dfrtp_1
*I *1143:RESET_B I *D sky130_fd_sc_hd__dfrtp_1
*I *1166:RESET_B I *D sky130_fd_sc_hd__dfrtp_1
*I *1155:RESET_B I *D sky130_fd_sc_hd__dfrtp_1
*I *1154:RESET_B I *D sky130_fd_sc_hd__dfrtp_1
*I *1149:RESET_B I *D sky130_fd_sc_hd__dfrtp_1
*I *1150:RESET_B I *D sky130_fd_sc_hd__dfrtp_1
*I *1147:RESET_B I *D sky130_fd_sc_hd__dfrtp_1
*I *1126:RESET_B I *D sky130_fd_sc_hd__dfrtp_1
*I *1117:RESET_B I *D sky130_fd_sc_hd__dfrtp_1
*I *1122:RESET_B I *D sky130_fd_sc_hd__dfrtp_1
*I *644:X O *D sky130_fd_sc_hd__lpflow_isobufsrc_1
*CAP
1 *1086:RESET_B 0.000269736
2 *1087:RESET_B 0.000432828
3 *1088:RESET_B 0.000317865
4 *1177:RESET_B 0.000219468
5 *1084:RESET_B 1.96794e-05
6 *1082:RESET_B 0.000161178
7 *1085:RESET_B 0.000268014
8 *1153:RESET_B 4.06529e-05
9 *1083:RESET_B 2.26741e-05
10 *1090:RESET_B 0
11 *1091:RESET_B 0
12 *1113:RESET_B 4.32091e-05
13 *1098:RESET_B 4.23535e-05
14 *1112:RESET_B 0.000278506
15 *1162:RESET_B 0.000277721
16 *1108:RESET_B 0
17 *1104:RESET_B 0
18 *1094:RESET_B 5.90382e-05
19 *1102:RESET_B 0.000537247
20 *1175:RESET_B 0.000468116
21 *1160:RESET_B 1.30376e-05
22 *1138:RESET_B 2.35958e-05
23 *1170:RESET_B 0.000154073
24 *1136:RESET_B 0.000365445
25 *1137:RESET_B 5.61778e-05
26 *1140:RESET_B 0.000242998
27 *1139:RESET_B 3.18721e-05
28 *1157:RESET_B 0.000379256
29 *1169:RESET_B 4.17118e-05
30 *1131:RESET_B 0.000443886
31 *1168:RESET_B 0
32 *1141:RESET_B 0.000180061
33 *1172:RESET_B 0.000810706
34 *1159:RESET_B 4.23535e-05
35 *1171:RESET_B 0.000448314
36 *1173:RESET_B 0.000845147
37 *1101:RESET_B 1.50804e-05
38 *1174:RESET_B 6.20329e-05
39 *1158:RESET_B 0.000468943
40 *1106:RESET_B 2.26741e-05
41 *1107:RESET_B 1.1337e-05
42 *1103:RESET_B 0.000175261
43 *1093:RESET_B 4.23535e-05
44 *1161:RESET_B 0.000173634
45 *1105:RESET_B 4.23535e-05
46 *1110:RESET_B 7.87176e-05
47 *1109:RESET_B 0.000111843
48 *1092:RESET_B 0
49 *1096:RESET_B 7.87176e-05
50 *1100:RESET_B 0
51 *1095:RESET_B 0.00016043
52 *1099:RESET_B 0
53 *1111:RESET_B 0.000180965
54 *1176:RESET_B 0.000155339
55 *1114:RESET_B 4.23535e-05
56 *1097:RESET_B 0.000534233
57 *1089:RESET_B 2.26741e-05
58 *1115:RESET_B 2.26741e-05
59 *1116:RESET_B 0.000603935
60 *1178:RESET_B 0.000866782
61 *1081:SET_B 0.000119159
62 *1152:RESET_B 6.16072e-05
63 *1163:RESET_B 0.000220849
64 *1123:RESET_B 0.000476156
65 *1119:RESET_B 4.23535e-05
66 *1127:RESET_B 0
67 *1118:RESET_B 0.000239147
68 *1121:RESET_B 7.22819e-05
69 *1124:RESET_B 8.17123e-05
70 *1125:RESET_B 0.000298186
71 *1120:RESET_B 0.00014075
72 *1164:RESET_B 0.00030118
73 *1165:RESET_B 2.26741e-05
74 *1146:RESET_B 0
75 *1130:RESET_B 0.000206825
76 *1128:RESET_B 0.000368111
77 *1151:RESET_B 0.000294649
78 *1148:RESET_B 0
79 *1129:RESET_B 0
80 *1156:RESET_B 4.23535e-05
81 *1132:RESET_B 0
82 *1144:RESET_B 3.41157e-05
83 *1145:RESET_B 0
84 *1133:RESET_B 0
85 *1135:RESET_B 0
86 *1167:RESET_B 0.000139176
87 *1134:RESET_B 4.1686e-05
88 *1142:RESET_B 6.18506e-05
89 *1143:RESET_B 0.000278982
90 *1166:RESET_B 2.26741e-05
91 *1155:RESET_B 2.26741e-05
92 *1154:RESET_B 0.000205854
93 *1149:RESET_B 2.35958e-05
94 *1150:RESET_B 2.26741e-05
95 *1147:RESET_B 0.000171582
96 *1126:RESET_B 4.32091e-05
97 *1117:RESET_B 3.22476e-05
98 *1122:RESET_B 0.000400395
99 *644:X 0.000555258
100 *455:957 0.000550565
101 *455:948 0.000414881
102 *455:928 0.00040332
103 *455:908 0.000308667
104 *455:851 0.000380166
105 *455:800 0.000327463
106 *455:771 0.000469223
107 *455:770 0.000385698
108 *455:745 0.000635889
109 *455:725 0.000394923
110 *455:715 0.000824313
111 *455:711 0.00132087
112 *455:682 0.000560275
113 *455:680 0.000675042
114 *455:664 0.00087622
115 *455:646 0.000878767
116 *455:627 0.00068081
117 *455:625 0.000459658
118 *455:624 0.000537724
119 *455:616 0.000561718
120 *455:602 0.000612414
121 *455:599 0.000668888
122 *455:589 0.000244868
123 *455:581 0.000323854
124 *455:579 0.000567145
125 *455:574 0.000510031
126 *455:555 0.000356738
127 *455:553 0.000602018
128 *455:543 0.000581468
129 *455:483 0.000392541
130 *455:481 0.000211576
131 *455:479 0.000385377
132 *455:477 0.000309654
133 *455:473 0.000391085
134 *455:469 0.000222096
135 *455:468 0.000261618
136 *455:466 0.000410203
137 *455:461 0.000728956
138 *455:459 0.000444326
139 *455:457 0.000315062
140 *455:455 0.000673454
141 *455:438 0.000784289
142 *455:430 0.000436012
143 *455:428 0.000702519
144 *455:418 0.000820013
145 *455:406 0.000334143
146 *455:389 0.000823258
147 *455:387 0.000434579
148 *455:385 0.000438765
149 *455:383 0.000567749
150 *455:382 0.000779032
151 *455:358 0.00105193
152 *455:344 0.00164746
153 *455:331 0.00122744
154 *455:290 0.000306345
155 *455:281 0.000522779
156 *455:272 0.00036261
157 *455:263 0.000584013
158 *455:250 0.000636165
159 *455:208 0.000485854
160 *455:164 0.000224908
161 *455:156 0.000266633
162 *455:154 0.000202816
163 *455:144 0.000268009
164 *455:132 0.000278156
165 *455:130 0.000251768
166 *455:128 0.000254756
167 *455:122 0.000439078
168 *455:120 0.000652881
169 *455:113 0.000717108
170 *455:103 0.000349737
171 *455:79 0.000312389
172 *455:77 0.000255447
173 *455:75 0.000455594
174 *455:66 0.000394318
175 *455:61 0.000463322
176 *455:50 0.000399469
177 *455:48 0.00047112
178 *455:47 0.00072351
179 *455:37 0.000302036
180 *455:28 0.000480942
181 *455:26 0.000580048
182 *455:24 0.000245534
183 *455:20 0.000298744
184 *455:10 0.00122906
185 *1081:SET_B *751:A 0
186 *1081:SET_B *472:8 0
187 *1081:SET_B *614:30 0
188 *1081:SET_B *614:40 0
189 *1082:RESET_B *1053:A 0
190 *1085:RESET_B *534:8 0
191 *1086:RESET_B *1087:CLK 0
192 *1087:RESET_B *618:A 0
193 *1087:RESET_B *1087:CLK 0
194 *1087:RESET_B *615:104 0
195 *1087:RESET_B *615:115 0
196 *1088:RESET_B *1088:CLK 0
197 *1089:RESET_B *502:10 0
198 *1093:RESET_B *475:8 0
199 *1097:RESET_B *1090:CLK 0
200 *1097:RESET_B *473:8 0
201 *1102:RESET_B *485:7 0
202 *1102:RESET_B *488:12 0
203 *1102:RESET_B *490:8 0
204 *1103:RESET_B *486:5 0
205 *1103:RESET_B *488:12 0
206 *1103:RESET_B *490:8 0
207 *1109:RESET_B *481:37 0
208 *1109:RESET_B *492:39 0
209 *1112:RESET_B *1112:CLK 0
210 *1114:RESET_B *615:27 0
211 *1115:RESET_B *544:8 0
212 *1116:RESET_B *721:C2 0
213 *1116:RESET_B *765:B 0
214 *1116:RESET_B *866:A 0
215 *1116:RESET_B *869:A 0
216 *1116:RESET_B *494:9 0
217 *1116:RESET_B *534:16 0
218 *1116:RESET_B *544:8 0
219 *1116:RESET_B *544:12 0
220 *1116:RESET_B *615:13 0
221 *1117:RESET_B *671:A1 0
222 *1118:RESET_B *1118:CLK 0
223 *1120:RESET_B *1508:A 0
224 *1121:RESET_B *550:8 0
225 *1122:RESET_B *551:7 0
226 *1125:RESET_B *539:8 0
227 *1126:RESET_B *540:14 0
228 *1128:RESET_B *1128:CLK 0
229 *1130:RESET_B *678:A1 0
230 *1131:RESET_B *607:12 0
231 *1136:RESET_B *609:25 0
232 *1136:RESET_B *609:26 0
233 *1136:RESET_B *609:97 0
234 *1137:RESET_B *609:49 0
235 *1140:RESET_B *1140:CLK 0
236 *1141:RESET_B *1506:A 0
237 *1141:RESET_B *519:8 0
238 *1143:RESET_B *608:22 0
239 *1147:RESET_B *678:A1 0
240 *1147:RESET_B *526:13 0
241 *1150:RESET_B *610:9 0
242 *1151:RESET_B *686:A1 0
243 *1151:RESET_B *696:C2 0
244 *1151:RESET_B *529:12 0
245 *1151:RESET_B *532:10 0
246 *1151:RESET_B *546:26 0
247 *1153:RESET_B *534:8 0
248 *1154:RESET_B *530:6 0
249 *1154:RESET_B *607:12 0
250 *1155:RESET_B *517:32 0
251 *1156:RESET_B *506:5 0
252 *1157:RESET_B *1130:CLK 0
253 *1157:RESET_B *609:61 0
254 *1158:RESET_B *1158:CLK 0
255 *1158:RESET_B *508:11 0
256 *1159:RESET_B *609:121 0
257 *1160:RESET_B *1160:CLK 0
258 *1162:RESET_B *1113:CLK 0
259 *1162:RESET_B *476:20 0
260 *1162:RESET_B *512:8 0
261 *1162:RESET_B *613:111 0
262 *1163:RESET_B *513:5 0
263 *1163:RESET_B *537:12 0
264 *1163:RESET_B *567:71 0
265 *1164:RESET_B *514:5 0
266 *1164:RESET_B *514:33 0
267 *1165:RESET_B *1017:A 0
268 *1166:RESET_B *1147:CLK 0
269 *1167:RESET_B *519:14 0
270 *1170:RESET_B *460:33 0
271 *1171:RESET_B *518:49 0
272 *1174:RESET_B *486:9 0
273 *1174:RESET_B *525:5 0
274 *1175:RESET_B *677:A 0
275 *1175:RESET_B *713:B2 0
276 *1175:RESET_B *713:C1 0
277 *1175:RESET_B *527:5 0
278 *1175:RESET_B *527:22 0
279 *1176:RESET_B *1176:CLK 0
280 *1176:RESET_B *481:8 0
281 *1176:RESET_B *613:35 0
282 *1178:RESET_B *751:A 0
283 *1178:RESET_B *614:40 0
284 *455:10 *629:B2 0
285 *455:10 *1056:A 0
286 *455:10 *1163:CLK 0
287 *455:10 *551:28 0
288 *455:10 *556:45 0
289 *455:10 *557:18 0
290 *455:10 *560:10 0
291 *455:10 *611:55 0
292 *455:10 *611:58 0
293 *455:10 *611:60 0
294 *455:20 *671:B2 0
295 *455:20 *551:28 0
296 *455:24 *671:B2 0
297 *455:24 *548:6 0
298 *455:26 *548:19 0
299 *455:26 *611:99 0
300 *455:28 *671:A1 0
301 *455:28 *671:B2 0
302 *455:28 *547:8 0
303 *455:28 *548:19 0
304 *455:28 *611:101 0
305 *455:37 *671:A1 0
306 *455:37 *704:C1 0
307 *455:37 *1117:CLK 0
308 *455:37 *540:14 0
309 *455:48 *1128:CLK 0
310 *455:48 *540:14 0
311 *455:48 *611:101 0
312 *455:50 *1128:CLK 0
313 *455:66 *610:9 0
314 *455:75 *531:19 0
315 *455:75 *531:41 0
316 *455:75 *607:12 0
317 *455:77 *607:12 0
318 *455:79 *607:12 0
319 *455:103 *1147:CLK 0
320 *455:103 *526:13 0
321 *455:113 *526:13 0
322 *455:120 *1166:CLK 0
323 *455:120 *526:13 0
324 *455:122 *685:A1 0
325 *455:122 *704:B2 0
326 *455:122 *608:106 0
327 *455:128 *685:A1 0
328 *455:128 *465:11 0
329 *455:128 *608:102 0
330 *455:128 *608:106 0
331 *455:132 *608:22 0
332 *455:144 *608:10 0
333 *455:144 *608:22 0
334 *455:208 *529:12 0
335 *455:208 *607:12 0
336 *455:250 *1017:A 0
337 *455:250 *611:101 0
338 *455:263 *1017:A 0
339 *455:263 *1508:A 0
340 *455:272 *1508:A 0
341 *455:290 *538:8 0
342 *455:344 *663:B2 0
343 *455:344 *567:39 0
344 *455:344 *567:71 0
345 *455:358 *497:14 0
346 *455:358 *569:11 0
347 *455:382 *1053:A 0
348 *455:382 *552:7 0
349 *455:383 *1053:A 0
350 *455:383 *615:95 0
351 *455:383 *615:104 0
352 *455:385 *615:86 0
353 *455:385 *615:95 0
354 *455:387 *494:35 0
355 *455:387 *615:77 0
356 *455:389 *494:9 0
357 *455:389 *494:35 0
358 *455:389 *615:8 0
359 *455:389 *615:13 0
360 *455:418 *753:A 0
361 *455:418 *753:D 0
362 *455:418 *501:21 0
363 *455:418 *502:10 0
364 *455:418 *544:8 0
365 *455:428 *501:10 0
366 *455:428 *502:10 0
367 *455:430 *1090:CLK 0
368 *455:430 *501:10 0
369 *455:438 *615:27 0
370 *455:455 *503:29 0
371 *455:457 *1113:CLK 0
372 *455:459 *818:A 0
373 *455:466 *818:A 0
374 *455:466 *1110:CLK 0
375 *455:466 *481:37 0
376 *455:466 *613:91 0
377 *455:469 *492:12 0
378 *455:473 *492:12 0
379 *455:477 *613:31 0
380 *455:477 *613:67 0
381 *455:477 *613:76 0
382 *455:479 *613:31 0
383 *455:481 *613:31 0
384 *455:481 *613:33 0
385 *455:481 *613:35 0
386 *455:483 *613:35 0
387 *455:553 *476:20 0
388 *455:553 *613:102 0
389 *455:555 *488:7 0
390 *455:574 *476:20 0
391 *455:579 *476:20 0
392 *455:581 *475:8 0
393 *455:581 *475:35 0
394 *455:599 *488:12 0
395 *455:599 *490:8 0
396 *455:625 *677:A 0
397 *455:627 *677:A 0
398 *455:664 *1160:CLK 0
399 *455:680 *688:A1 0
400 *455:680 *1172:CLK 0
401 *455:680 *1173:CLK 0
402 *455:680 *518:49 0
403 *455:682 *1172:CLK 0
404 *455:682 *518:49 0
405 *455:711 *679:B2 0
406 *455:711 *457:5 0
407 *455:715 *1139:CLK 0
408 *455:715 *608:5 0
409 *455:725 *1506:A 0
410 *455:725 *519:8 0
411 *455:725 *607:12 0
412 *455:745 *607:12 0
413 *455:771 *609:31 0
414 *455:771 *609:40 0
415 *455:771 *609:49 0
416 *455:800 *460:33 0
417 *455:851 *476:20 0
418 *455:851 *613:102 0
419 *455:851 *613:111 0
420 *455:948 *618:A 0
421 *455:948 *1053:A 0
422 *455:948 *615:104 0
423 *455:957 *618:A 0
424 *455:957 *615:104 0
425 *629:A3 *455:10 0
426 *708:A1 *455:344 0
427 *708:A1 *455:358 0
428 *756:B *1116:RESET_B 0
429 *793:A2 *455:428 0
430 *796:B1 *455:455 0
431 *1081:D *1178:RESET_B 0
432 *1081:D *455:382 0
433 *1087:D *1086:RESET_B 0
434 *1087:D *1087:RESET_B 0
435 *1088:D *1088:RESET_B 0
436 *1090:D *455:428 0
437 *1091:D *1097:RESET_B 0
438 *1096:D *455:477 0
439 *1097:D *455:438 0
440 *1098:D *1098:RESET_B 0
441 *1102:D *1158:RESET_B 0
442 *1102:D *1175:RESET_B 0
443 *1102:D *455:625 0
444 *1102:D *455:627 0
445 *1104:D *455:579 0
446 *1108:D *1161:RESET_B 0
447 *1108:D *455:574 0
448 *1108:D *455:579 0
449 *1110:D *455:469 0
450 *1111:D *1111:RESET_B 0
451 *1113:D *1113:RESET_B 0
452 *1115:D *1116:RESET_B 0
453 *1118:D *455:263 0
454 *1122:D *1124:RESET_B 0
455 *1128:D *1128:RESET_B 0
456 *1128:D *455:66 0
457 *1139:D *1136:RESET_B 0
458 *1150:D *1151:RESET_B 0
459 *1150:D *455:208 0
460 *1155:D *455:120 0
461 *1157:D *1157:RESET_B 0
462 *1159:D *1159:RESET_B 0
463 *1160:D *1173:RESET_B 0
464 *1172:D *1171:RESET_B 0
465 *1172:D *455:680 0
466 *1172:D *455:682 0
467 *1172:D *455:711 0
468 *1182:D *455:344 0
469 *13:11 *1116:RESET_B 0
470 *13:11 *455:389 0
471 *16:11 *1176:RESET_B 0
472 *16:11 *455:473 0
473 *16:11 *455:477 0
474 *16:11 *455:479 0
475 *16:11 *455:481 0
476 *16:11 *455:483 0
477 *29:8 *1102:RESET_B 0
478 *33:11 *455:466 0
479 *33:11 *455:543 0
480 *36:11 *1112:RESET_B 0
481 *51:17 *1120:RESET_B 0
482 *52:12 *455:48 0
483 *52:12 *455:50 0
484 *64:17 *1136:RESET_B 0
485 *64:17 *1140:RESET_B 0
486 *64:17 *1170:RESET_B 0
487 *64:17 *455:771 0
488 *64:17 *455:800 0
489 *68:16 *1143:RESET_B 0
490 *68:16 *455:132 0
491 *81:8 *1131:RESET_B 0
492 *81:8 *455:725 0
493 *81:8 *455:745 0
494 *93:13 *1167:RESET_B 0
495 *93:13 *455:130 0
496 *93:13 *455:132 0
497 *93:13 *455:144 0
498 *93:13 *455:154 0
499 *93:13 *455:156 0
500 *93:13 *455:164 0
501 *119:13 *455:344 0
502 *134:101 *1173:RESET_B 0
503 *189:22 *455:344 0
504 *204:11 *1178:RESET_B 0
505 *204:975 *1097:RESET_B 0
506 *204:986 *1097:RESET_B 0
507 *218:10 *1173:RESET_B 0
508 *240:6 *1161:RESET_B 0
509 *241:8 *1158:RESET_B 0
510 *241:8 *455:627 0
511 *246:80 *1097:RESET_B 0
512 *246:80 *455:430 0
513 *246:565 *455:428 0
514 *246:565 *455:430 0
*RES
1 *644:X *455:10 30.8 
2 *455:10 *1122:RESET_B 5.00893 
3 *1122:RESET_B *455:20 8.13393 
4 *455:20 *455:24 2.17857 
5 *455:24 *455:26 3.46429 
6 *455:26 *455:28 4.375 
7 *455:28 *1117:RESET_B 5.23214 
8 *455:28 *455:37 9.96429 
9 *455:37 *1126:RESET_B 0.901786 
10 *455:37 *455:47 4.5 
11 *455:47 *455:48 5.58929 
12 *455:48 *455:50 5.28571 
13 *455:50 *1147:RESET_B 8.36607 
14 *455:50 *455:61 4.5 
15 *455:61 *455:66 6.42857 
16 *455:66 *1150:RESET_B 0.473214 
17 *455:66 *455:75 6.14286 
18 *455:75 *455:77 3.46429 
19 *455:77 *455:79 1.94643 
20 *455:79 *1149:RESET_B 5.03571 
21 *455:79 *1154:RESET_B 9.17857 
22 *455:77 *1155:RESET_B 4.97321 
23 *455:75 *455:103 4.99107 
24 *455:103 *1166:RESET_B 0.473214 
25 *455:103 *455:113 2.19643 
26 *455:113 *455:120 14.1429 
27 *455:120 *455:122 4.98214 
28 *455:122 *455:128 4.125 
29 *455:128 *455:130 1.79464 
30 *455:130 *455:132 3.3125 
31 *455:132 *1143:RESET_B 7.45536 
32 *1143:RESET_B *455:144 8.11607 
33 *455:144 *1142:RESET_B 5.91964 
34 *455:144 *455:154 1.49107 
35 *455:154 *455:156 3.16071 
36 *455:156 *1134:RESET_B 5.44643 
37 *455:156 *455:164 1.94643 
38 *455:164 *1167:RESET_B 7.66071 
39 *455:164 *1135:RESET_B 4.5 
40 *455:154 *1133:RESET_B 4.5 
41 *455:132 *1145:RESET_B 4.5 
42 *455:130 *1144:RESET_B 5.3125 
43 *455:128 *1132:RESET_B 4.5 
44 *455:122 *1156:RESET_B 5.38393 
45 *455:120 *1129:RESET_B 4.5 
46 *455:113 *455:208 8.875 
47 *455:208 *1148:RESET_B 4.5 
48 *455:208 *1151:RESET_B 11.0804 
49 *455:61 *1128:RESET_B 3.49107 
50 *1128:RESET_B *1130:RESET_B 13.7054 
51 *455:48 *1146:RESET_B 4.5 
52 *455:47 *455:250 14.875 
53 *455:250 *1165:RESET_B 0.473214 
54 *455:250 *455:263 7.625 
55 *455:263 *1164:RESET_B 10.7232 
56 *455:263 *455:272 3.46429 
57 *455:272 *1120:RESET_B 7.4375 
58 *455:272 *455:281 1.64286 
59 *455:281 *1125:RESET_B 10.7232 
60 *455:281 *455:290 3.46429 
61 *455:290 *1124:RESET_B 6.20536 
62 *455:290 *1121:RESET_B 6.14286 
63 *455:26 *1118:RESET_B 9.49107 
64 *455:24 *1127:RESET_B 4.5 
65 *455:20 *1119:RESET_B 5.38393 
66 *455:10 *1123:RESET_B 9.11607 
67 *1123:RESET_B *455:331 5.38393 
68 *455:331 *1163:RESET_B 9.36607 
69 *455:331 *455:344 10.7223 
70 *455:344 *1152:RESET_B 9.26714 
71 *455:344 *455:358 5.69107 
72 *455:358 *1081:SET_B 7.20536 
73 *455:358 *1178:RESET_B 15.2471 
74 *1178:RESET_B *455:382 16.0804 
75 *455:382 *455:383 2.25 
76 *455:383 *455:385 5.58929 
77 *455:385 *455:387 4.375 
78 *455:387 *455:389 4.98214 
79 *455:389 *1116:RESET_B 18.8498 
80 *455:389 *455:406 4.5 
81 *455:406 *1115:RESET_B 0.473214 
82 *455:406 *455:418 15.6964 
83 *455:418 *1089:RESET_B 0.473214 
84 *455:418 *455:428 14.8929 
85 *455:428 *455:430 4.98214 
86 *455:430 *1097:RESET_B 9.48214 
87 *1097:RESET_B *455:438 6.63393 
88 *455:438 *1114:RESET_B 0.883929 
89 *455:438 *455:455 14.4464 
90 *455:455 *455:457 4.67857 
91 *455:457 *455:459 1.64286 
92 *455:459 *455:461 2.25 
93 *455:461 *455:466 11.5893 
94 *455:466 *455:468 4.5 
95 *455:468 *455:469 3.46429 
96 *455:469 *455:473 6.14286 
97 *455:473 *455:477 9.73214 
98 *455:477 *455:479 1.64286 
99 *455:479 *455:481 3.46429 
100 *455:481 *455:483 1.33929 
101 *455:483 *1176:RESET_B 7.96429 
102 *455:483 *1111:RESET_B 8.27679 
103 *455:481 *1099:RESET_B 4.5 
104 *455:479 *1095:RESET_B 7.84821 
105 *455:477 *1100:RESET_B 4.5 
106 *455:473 *1096:RESET_B 1.70536 
107 *455:469 *1092:RESET_B 4.5 
108 *455:468 *1109:RESET_B 7.02679 
109 *455:466 *1110:RESET_B 1.70536 
110 *455:461 *455:543 15.2857 
111 *455:543 *455:553 8.41518 
112 *455:553 *455:555 3 
113 *455:555 *1105:RESET_B 0.883929 
114 *455:555 *1161:RESET_B 12.7589 
115 *455:553 *455:574 11 
116 *455:574 *455:579 9.60714 
117 *455:579 *455:581 5.875 
118 *455:581 *1093:RESET_B 0.883929 
119 *455:581 *455:589 4.5 
120 *455:589 *1103:RESET_B 8.4375 
121 *455:589 *455:599 1.64286 
122 *455:599 *455:602 5.85714 
123 *455:602 *1107:RESET_B 0.473214 
124 *455:602 *455:616 11.375 
125 *455:616 *1106:RESET_B 0.473214 
126 *455:616 *455:624 4.5 
127 *455:624 *455:625 1.64286 
128 *455:625 *455:627 3.46429 
129 *455:627 *1158:RESET_B 14.4196 
130 *455:627 *1174:RESET_B 5.79464 
131 *455:625 *455:646 9.60714 
132 *455:646 *1101:RESET_B 0.419643 
133 *455:646 *455:664 22.1786 
134 *455:664 *1173:RESET_B 14.3571 
135 *1173:RESET_B *455:680 17.4732 
136 *455:680 *455:682 1.64286 
137 *455:682 *1171:RESET_B 14.2232 
138 *455:682 *1159:RESET_B 5.38393 
139 *455:680 *1172:RESET_B 4.5 
140 *1172:RESET_B *455:711 17.0446 
141 *455:711 *455:715 14.4821 
142 *455:715 *1141:RESET_B 8.36607 
143 *455:715 *455:725 3.76786 
144 *455:725 *1168:RESET_B 4.5 
145 *455:725 *1131:RESET_B 9.59821 
146 *1131:RESET_B *455:745 14.1518 
147 *455:745 *1169:RESET_B 0.901786 
148 *455:745 *1157:RESET_B 8.00893 
149 *455:711 *1139:RESET_B 0.901786 
150 *1139:RESET_B *455:770 4.5 
151 *455:770 *455:771 3.76786 
152 *455:771 *1140:RESET_B 9.63393 
153 *455:771 *1137:RESET_B 5.83929 
154 *455:770 *1136:RESET_B 9.20536 
155 *1136:RESET_B *455:800 7.96429 
156 *455:800 *1170:RESET_B 7.84821 
157 *455:800 *1138:RESET_B 5.03571 
158 *455:664 *1160:RESET_B 0.473214 
159 *455:624 *1175:RESET_B 14.9375 
160 *455:599 *1102:RESET_B 16.1161 
161 *455:579 *1094:RESET_B 1.29464 
162 *455:574 *1104:RESET_B 4.5 
163 *455:543 *455:851 2.38839 
164 *455:851 *1108:RESET_B 4.5 
165 *455:851 *1162:RESET_B 10.7232 
166 *455:459 *1112:RESET_B 10.3125 
167 *455:457 *1098:RESET_B 5.38393 
168 *455:455 *1113:RESET_B 5.40179 
169 *455:430 *1091:RESET_B 4.5 
170 *455:428 *1090:RESET_B 4.5 
171 *455:387 *1083:RESET_B 4.97321 
172 *455:385 *455:908 4.5 
173 *455:908 *1153:RESET_B 0.901786 
174 *455:908 *1085:RESET_B 5.84821 
175 *455:383 *455:928 9.14286 
176 *455:928 *1082:RESET_B 12.4732 
177 *455:928 *1084:RESET_B 0.473214 
178 *455:382 *455:948 2.85714 
179 *455:948 *1177:RESET_B 9.08036 
180 *455:948 *455:957 1.64286 
181 *455:957 *1088:RESET_B 11.1339 
182 *455:957 *1087:RESET_B 8.25893 
183 *1087:RESET_B *1086:RESET_B 5.89286 
*END

*D_NET *456 0.00750552
*CONN
*I *667:A1 I *D sky130_fd_sc_hd__a222oi_1
*I *909:A I *D sky130_fd_sc_hd__nand2_1
*I *759:D_N I *D sky130_fd_sc_hd__or4b_1
*I *911:A I *D sky130_fd_sc_hd__nand2_1
*I *1129:Q O *D sky130_fd_sc_hd__dfrtp_1
*CAP
1 *667:A1 0
2 *909:A 0.000261607
3 *759:D_N 0
4 *911:A 0.000149735
5 *1129:Q 0
6 *456:66 0.0017292
7 *456:18 0.000149735
8 *456:16 0.00187383
9 *456:4 0.00334142
10 *909:A *989:A 0
11 *909:A *463:24 0
12 *456:16 *685:A1 0
13 *456:16 *704:B2 0
14 *456:16 *607:12 0
15 *456:66 *667:B2 0
16 *456:66 *688:C1 0
17 *456:66 *735:B 0
18 *456:66 *1149:CLK 0
19 *456:66 *515:9 0
20 *680:B *456:66 0
21 *723:A1 *456:66 0
22 *910:B1 *909:A 0
23 *913:A2 *911:A 0
24 *913:B1 *909:A 0
25 *913:B1 *911:A 0
26 *913:B1 *456:16 0
27 *985:A *456:66 0
28 *1129:D *909:A 0
29 *1129:D *456:16 0
30 *1155:D *456:16 0
31 *54:24 *456:16 0
32 *55:20 *456:16 0
33 *145:38 *456:66 0
34 *145:54 *456:66 0
35 *149:18 *456:66 0
36 *226:24 *456:16 0
37 *246:274 *909:A 0
*RES
1 *1129:Q *456:4 9.3 
2 *456:4 *456:16 19.4349 
3 *456:16 *456:18 4.5 
4 *456:18 *911:A 12.6393 
5 *456:18 *759:D_N 9.3 
6 *456:16 *909:A 19.7107 
7 *456:4 *456:66 45.8348 
8 *456:66 *667:A1 9.3 
*END

*D_NET *457 0.00335297
*CONN
*I *679:B2 I *D sky130_fd_sc_hd__a22oi_1
*I *745:B I *D sky130_fd_sc_hd__nor4b_1
*I *939:A I *D sky130_fd_sc_hd__nand2_1
*I *941:A I *D sky130_fd_sc_hd__nand2_1
*I *1139:Q O *D sky130_fd_sc_hd__dfrtp_1
*CAP
1 *679:B2 0.00044171
2 *745:B 0
3 *939:A 1.02675e-05
4 *941:A 0.00016428
5 *1139:Q 6.50276e-05
6 *457:13 0.00060278
7 *457:8 0.000995201
8 *457:5 0.00107371
9 *679:B2 *718:A1 0
10 *679:B2 *470:8 0
11 *457:8 *745:C 0
12 *457:8 *458:8 0
13 *457:8 *460:33 0
14 *457:13 *933:A 0
15 *457:13 *938:A 0
16 *457:13 *458:13 0
17 *679:B1 *679:B2 0
18 *719:B *679:B2 0
19 *936:B *457:13 0
20 *940:A2 *941:A 0
21 *940:A2 *457:13 0
22 *940:B1 *941:A 0
23 *1139:D *941:A 0
24 *64:17 *941:A 0
25 *64:17 *457:8 0
26 *64:17 *457:13 0
27 *203:878 *457:13 0
28 *204:272 *941:A 0
29 *204:272 *457:13 0
30 *455:711 *679:B2 0
31 *455:711 *457:5 0
*RES
1 *1139:Q *457:5 10.6571 
2 *457:5 *457:8 17.375 
3 *457:8 *457:13 13.8214 
4 *457:13 *941:A 12.7286 
5 *457:13 *939:A 9.72857 
6 *457:8 *745:B 13.8 
7 *457:5 *679:B2 28.2821 
*END

*D_NET *458 0.00645653
*CONN
*I *688:C1 I *D sky130_fd_sc_hd__a222oi_1
*I *745:A I *D sky130_fd_sc_hd__nor4b_1
*I *942:A I *D sky130_fd_sc_hd__nand2_1
*I *944:A I *D sky130_fd_sc_hd__nand2_1
*I *1140:Q O *D sky130_fd_sc_hd__dfrtp_1
*CAP
1 *688:C1 0.000679652
2 *745:A 0
3 *942:A 1.21519e-05
4 *944:A 0.000644646
5 *1140:Q 0
6 *458:13 0.00171758
7 *458:8 0.00189181
8 *458:4 0.00151069
9 *688:C1 *694:A1 0
10 *688:C1 *711:B2 0
11 *688:C1 *518:49 0
12 *458:8 *470:8 0
13 *458:13 *470:15 0
14 *458:13 *520:35 0
15 *667:B1 *688:C1 0
16 *688:B1 *688:C1 0
17 *931:A *944:A 0
18 *931:A *458:13 0
19 *985:B *688:C1 0
20 *1030:B1 *944:A 0
21 *1154:D *688:C1 0
22 *64:17 *458:8 0
23 *65:14 *944:A 0
24 *65:14 *458:13 0
25 *145:54 *688:C1 0
26 *149:22 *688:C1 0
27 *203:302 *944:A 0
28 *203:307 *944:A 0
29 *456:66 *688:C1 0
30 *457:8 *458:8 0
31 *457:13 *458:13 0
*RES
1 *1140:Q *458:4 9.3 
2 *458:4 *458:8 23.1071 
3 *458:8 *458:13 9.54949 
4 *458:13 *944:A 19.7679 
5 *458:13 *942:A 17.4868 
6 *458:8 *745:A 13.8 
7 *458:4 *688:C1 33.2464 
*END

*D_NET *459 0.00953013
*CONN
*I *694:B2 I *D sky130_fd_sc_hd__a22oi_1
*I *945:A I *D sky130_fd_sc_hd__nand2_1
*I *747:D I *D sky130_fd_sc_hd__nand4b_1
*I *947:A I *D sky130_fd_sc_hd__nand2_1
*I *1141:Q O *D sky130_fd_sc_hd__dfrtp_1
*CAP
1 *694:B2 0.00154374
2 *945:A 0.000426613
3 *747:D 0.000514889
4 *947:A 0.000384927
5 *1141:Q 0.000137765
6 *459:13 0.00145003
7 *459:11 0.00218375
8 *459:10 0.00288843
9 *694:B2 *984:A 0
10 *694:B2 *466:34 0
11 *694:B2 *468:41 0
12 *694:B2 *469:14 0
13 *694:B2 *506:47 0
14 *694:B2 *517:46 0
15 *694:B2 *520:12 0
16 *747:D *759:A 0
17 *747:D *921:A 0
18 *747:D *923:A 0
19 *747:D *951:A 0
20 *747:D *956:A 0
21 *747:D *504:15 0
22 *747:D *504:19 0
23 *945:A *517:17 0
24 *947:A *759:C 0
25 *947:A *948:A 0
26 *947:A *460:12 0
27 *947:A *467:11 0
28 *459:11 *466:34 0
29 *459:11 *467:9 0
30 *459:11 *468:41 0
31 *459:11 *519:14 0
32 *459:13 *467:9 0
33 *459:13 *467:11 0
34 *922:A *747:D 0
35 *949:A2 *947:A 0
36 *949:B1 *947:A 0
37 *955:B1 *747:D 0
38 *1137:D *459:10 0
39 *1139:D *459:10 0
40 *1142:D *947:A 0
41 *1167:D *945:A 0
42 *203:232 *747:D 0
43 *203:302 *945:A 0
44 *203:307 *945:A 0
45 *204:365 *747:D 0
46 *226:24 *694:B2 0
47 *227:20 *694:B2 0
48 *246:222 *947:A 0
49 *246:231 *947:A 0
*RES
1 *1141:Q *459:10 20.2546 
2 *459:10 *459:11 4.371 
3 *459:11 *459:13 1.9928 
4 *459:13 *947:A 22.6639 
5 *459:13 *747:D 28.6832 
6 *459:11 *945:A 26.8975 
7 *459:10 *694:B2 33.0072 
*END

*D_NET *460 0.00887466
*CONN
*I *705:B2 I *D sky130_fd_sc_hd__a22oi_1
*I *745:C I *D sky130_fd_sc_hd__nor4b_1
*I *950:A I *D sky130_fd_sc_hd__nand2_1
*I *948:A I *D sky130_fd_sc_hd__nand2_1
*I *1142:Q O *D sky130_fd_sc_hd__dfrtp_1
*CAP
1 *705:B2 0.00107324
2 *745:C 0.000212658
3 *950:A 0.000124066
4 *948:A 0.000151513
5 *1142:Q 6.56751e-05
6 *460:33 0.0026196
7 *460:12 0.00175206
8 *460:8 0.00287585
9 *705:B2 *466:34 0
10 *705:B2 *468:41 0
11 *705:B2 *509:11 0
12 *705:B2 *518:28 0
13 *705:B2 *519:39 0
14 *705:B2 *521:21 0
15 *705:B2 *523:11 0
16 *460:8 *704:B2 0
17 *460:12 *759:C 0
18 *460:12 *461:9 0
19 *460:12 *466:11 0
20 *460:12 *467:11 0
21 *460:33 *711:B2 0
22 *460:33 *461:9 0
23 *460:33 *466:11 0
24 *460:33 *466:34 0
25 *947:A *948:A 0
26 *947:A *460:12 0
27 *947:B *948:A 0
28 *948:B *948:A 0
29 *949:A1 *950:A 0
30 *949:B1 *948:A 0
31 *950:B *950:A 0
32 *1133:D *460:12 0
33 *1142:D *460:12 0
34 *1170:D *745:C 0
35 *1170:D *460:33 0
36 *1170:RESET_B *460:33 0
37 *1171:D *705:B2 0
38 *64:17 *745:C 0
39 *64:17 *460:33 0
40 *93:13 *460:8 0
41 *158:20 *705:B2 0
42 *203:271 *460:12 0
43 *203:275 *948:A 0
44 *226:24 *705:B2 0
45 *455:800 *460:33 0
46 *457:8 *745:C 0
47 *457:8 *460:33 0
*RES
1 *1142:Q *460:8 18.7011 
2 *460:8 *460:12 13.0591 
3 *460:12 *948:A 17.1929 
4 *460:12 *950:A 16.3893 
5 *460:8 *460:33 12.9379 
6 *460:33 *745:C 18.6304 
7 *460:33 *705:B2 30.5388 
*END

*D_NET *461 0.00733154
*CONN
*I *711:B2 I *D sky130_fd_sc_hd__a22oi_1
*I *747:B I *D sky130_fd_sc_hd__nand4b_1
*I *953:A I *D sky130_fd_sc_hd__nand2_1
*I *951:A I *D sky130_fd_sc_hd__nand2_1
*I *1143:Q O *D sky130_fd_sc_hd__dfrtp_1
*CAP
1 *711:B2 0.00181095
2 *747:B 8.17399e-05
3 *953:A 7.37977e-05
4 *951:A 0.000428395
5 *1143:Q 2.55622e-05
6 *461:14 0.0006998
7 *461:9 0.00132706
8 *461:8 0.00288423
9 *711:B2 *679:A1 0
10 *711:B2 *688:A1 0
11 *711:B2 *693:A1 0
12 *711:B2 *718:B2 0
13 *711:B2 *466:34 0
14 *711:B2 *507:11 0
15 *711:B2 *518:49 0
16 *747:B *954:A 0
17 *747:B *462:14 0
18 *747:B *465:25 0
19 *953:A *954:A 0
20 *461:8 *704:B2 0
21 *461:9 *462:12 0
22 *688:C1 *711:B2 0
23 *718:A2 *711:B2 0
24 *747:D *951:A 0
25 *953:B *953:A 0
26 *955:B1 *951:A 0
27 *1143:D *461:9 0
28 *1143:D *461:14 0
29 *1145:D *461:9 0
30 *1145:D *461:14 0
31 *68:16 *953:A 0
32 *93:13 *461:8 0
33 *149:70 *711:B2 0
34 *203:236 *953:A 0
35 *203:271 *951:A 0
36 *204:365 *951:A 0
37 *204:389 *951:A 0
38 *204:389 *461:14 0
39 *204:398 *461:14 0
40 *460:12 *461:9 0
41 *460:33 *711:B2 0
42 *460:33 *461:9 0
*RES
1 *1143:Q *461:8 17.7904 
2 *461:8 *461:9 3.79447 
3 *461:9 *461:14 4.61389 
4 *461:14 *951:A 23.1214 
5 *461:14 *953:A 15.3402 
6 *461:9 *747:B 19.0046 
7 *461:8 *711:B2 27.8527 
*END

*D_NET *462 0.00616376
*CONN
*I *718:B2 I *D sky130_fd_sc_hd__a22oi_1
*I *747:C I *D sky130_fd_sc_hd__nand4b_1
*I *956:A I *D sky130_fd_sc_hd__nand2_1
*I *954:A I *D sky130_fd_sc_hd__nand2_1
*I *1144:Q O *D sky130_fd_sc_hd__dfrtp_1
*CAP
1 *718:B2 0.0011558
2 *747:C 0
3 *956:A 0.000517286
4 *954:A 0.00020359
5 *1144:Q 0
6 *462:14 0.000750371
7 *462:12 0.0012052
8 *462:5 0.00233151
9 *718:B2 *679:A1 0
10 *718:B2 *693:A1 0
11 *718:B2 *464:14 0
12 *954:A *759:A 0
13 *954:A *465:25 0
14 *956:A *504:15 0
15 *956:A *504:19 0
16 *462:12 *704:B2 0
17 *462:12 *759:A 0
18 *462:12 *464:14 0
19 *462:12 *465:11 0
20 *462:14 *759:A 0
21 *711:B2 *718:B2 0
22 *747:B *954:A 0
23 *747:B *462:14 0
24 *747:D *956:A 0
25 *914:B *956:A 0
26 *918:B *462:12 0
27 *953:A *954:A 0
28 *955:A1 *956:A 0
29 *955:A2 *956:A 0
30 *958:A2 *956:A 0
31 *1145:D *462:12 0
32 *68:16 *954:A 0
33 *93:13 *462:12 0
34 *203:236 *954:A 0
35 *246:249 *956:A 0
36 *461:9 *462:12 0
*RES
1 *1144:Q *462:5 13.8 
2 *462:5 *462:12 13.0615 
3 *462:12 *462:14 0.732143 
4 *462:14 *954:A 18.1571 
5 *462:14 *956:A 33.7286 
6 *462:12 *747:C 13.8 
7 *462:5 *718:B2 25.5599 
*END

*D_NET *463 0.0101554
*CONN
*I *673:B2 I *D sky130_fd_sc_hd__a222oi_1
*I *760:A_N I *D sky130_fd_sc_hd__nand4b_1
*I *912:A I *D sky130_fd_sc_hd__nand2_1
*I *914:A I *D sky130_fd_sc_hd__nand2_1
*I *1130:Q O *D sky130_fd_sc_hd__dfrtp_1
*CAP
1 *673:B2 0.0011841
2 *760:A_N 0.000451595
3 *912:A 4.92646e-05
4 *914:A 0.000219441
5 *1130:Q 0.000198194
6 *463:24 0.000519658
7 *463:21 0.0034267
8 *463:10 0.00410645
9 *673:B2 *685:A1 0
10 *673:B2 *736:A 0
11 *673:B2 *505:29 0
12 *673:B2 *512:31 0
13 *673:B2 *535:31 0
14 *760:A_N *908:A 0
15 *760:A_N *989:A 0
16 *914:A *759:C 0
17 *463:10 *678:A1 0
18 *463:10 *704:B2 0
19 *463:21 *685:A1 0
20 *463:21 *720:C2 0
21 *463:21 *505:29 0
22 *463:21 *531:19 0
23 *463:21 *542:39 0
24 *463:24 *759:C 0
25 *684:A1 *673:B2 0
26 *704:C2 *463:10 0
27 *707:A *673:B2 0
28 *768:A *673:B2 0
29 *909:A *463:24 0
30 *910:A2 *760:A_N 0
31 *913:B1 *463:24 0
32 *984:B *463:10 0
33 *1119:D *463:21 0
34 *1147:D *463:21 0
35 *54:24 *463:21 0
36 *203:435 *914:A 0
37 *203:445 *912:A 0
38 *204:414 *912:A 0
39 *226:24 *463:21 0
40 *246:249 *914:A 0
41 *246:249 *463:24 0
42 *246:256 *463:24 0
43 *246:294 *760:A_N 0
44 *246:298 *760:A_N 0
*RES
1 *1130:Q *463:10 21.6654 
2 *463:10 *463:21 12.3611 
3 *463:21 *463:24 5.66964 
4 *463:24 *914:A 18.7821 
5 *463:24 *912:A 14.8714 
6 *463:21 *760:A_N 24.0232 
7 *463:10 *673:B2 21.9547 
*END

*D_NET *464 0.00630382
*CONN
*I *679:A1 I *D sky130_fd_sc_hd__a22oi_1
*I *915:A I *D sky130_fd_sc_hd__nand2_1
*I *759:B I *D sky130_fd_sc_hd__or4b_1
*I *917:A I *D sky130_fd_sc_hd__nand2_1
*I *1131:Q O *D sky130_fd_sc_hd__dfrtp_1
*CAP
1 *679:A1 0.000821662
2 *915:A 4.91985e-05
3 *759:B 0.000341684
4 *917:A 0
5 *1131:Q 0.000159193
6 *464:25 0.00057142
7 *464:14 0.00178017
8 *464:8 0.00258049
9 *679:A1 *507:11 0
10 *679:A1 *517:46 0
11 *679:A1 *520:12 0
12 *759:B *989:A 0
13 *759:B *504:37 0
14 *464:8 *693:A1 0
15 *464:14 *530:44 0
16 *679:B1 *679:A1 0
17 *711:B2 *679:A1 0
18 *718:B2 *679:A1 0
19 *718:B2 *464:14 0
20 *916:A *915:A 0
21 *916:A *464:25 0
22 *916:B *759:B 0
23 *916:B *915:A 0
24 *916:B *464:25 0
25 *918:B *464:14 0
26 *990:B *759:B 0
27 *55:20 *464:14 0
28 *55:20 *464:25 0
29 *81:8 *464:8 0
30 *204:409 *759:B 0
31 *226:24 *464:14 0
32 *462:12 *464:14 0
*RES
1 *1131:Q *464:8 20.8261 
2 *464:8 *464:14 13.9271 
3 *464:14 *917:A 9.3 
4 *464:14 *464:25 4.19196 
5 *464:25 *759:B 26.0366 
6 *464:25 *915:A 10.3268 
7 *464:8 *679:A1 21.7181 
*END

*D_NET *465 0.00860281
*CONN
*I *685:A1 I *D sky130_fd_sc_hd__a22oi_1
*I *918:A I *D sky130_fd_sc_hd__nand2_1
*I *920:A I *D sky130_fd_sc_hd__nand2_1
*I *759:A I *D sky130_fd_sc_hd__or4b_1
*I *1132:Q O *D sky130_fd_sc_hd__dfrtp_1
*CAP
1 *685:A1 0.0021631
2 *918:A 0
3 *920:A 0
4 *759:A 0.000693879
5 *1132:Q 0
6 *465:25 0.000974459
7 *465:11 0.00144443
8 *465:5 0.00332694
9 *685:A1 *685:B2 0
10 *685:A1 *704:B2 0
11 *685:A1 *505:29 0
12 *685:A1 *506:47 0
13 *685:A1 *530:44 0
14 *759:A *748:A 0
15 *465:11 *704:B2 0
16 *465:11 *1131:CLK 0
17 *465:11 *504:15 0
18 *465:11 *608:24 0
19 *465:25 *504:15 0
20 *673:B2 *685:A1 0
21 *684:A1 *685:A1 0
22 *747:B *465:25 0
23 *747:D *759:A 0
24 *761:C *759:A 0
25 *954:A *759:A 0
26 *954:A *465:25 0
27 *986:B *759:A 0
28 *55:20 *685:A1 0
29 *55:20 *759:A 0
30 *68:16 *465:25 0
31 *93:13 *465:11 0
32 *203:225 *759:A 0
33 *203:227 *759:A 0
34 *203:232 *759:A 0
35 *226:24 *759:A 0
36 *227:20 *685:A1 0
37 *455:122 *685:A1 0
38 *455:128 *685:A1 0
39 *455:128 *465:11 0
40 *456:16 *685:A1 0
41 *462:12 *759:A 0
42 *462:12 *465:11 0
43 *462:14 *759:A 0
44 *463:21 *685:A1 0
*RES
1 *1132:Q *465:5 13.8 
2 *465:5 *465:11 29.2321 
3 *465:11 *465:25 15.1607 
4 *465:25 *759:A 33.675 
5 *465:25 *920:A 9.3 
6 *465:11 *918:A 9.3 
7 *465:5 *685:A1 31.7509 
*END

*D_NET *466 0.00850392
*CONN
*I *694:A1 I *D sky130_fd_sc_hd__a22oi_1
*I *744:D I *D sky130_fd_sc_hd__and4b_1
*I *921:A I *D sky130_fd_sc_hd__nand2_1
*I *923:A I *D sky130_fd_sc_hd__nand2_1
*I *1133:Q O *D sky130_fd_sc_hd__dfrtp_1
*CAP
1 *694:A1 0.000789065
2 *744:D 0.000323195
3 *921:A 0.000117704
4 *923:A 0.00052979
5 *1133:Q 1.21912e-05
6 *466:34 0.00249828
7 *466:11 0.00174149
8 *466:8 0.00249221
9 *694:A1 *469:14 0
10 *694:A1 *518:49 0
11 *744:D *469:33 0
12 *744:D *471:8 0
13 *744:D *471:10 0
14 *744:D *471:15 0
15 *744:D *518:49 0
16 *466:11 *467:9 0
17 *466:11 *467:11 0
18 *466:34 *467:9 0
19 *667:B1 *694:A1 0
20 *667:C2 *694:A1 0
21 *688:C1 *694:A1 0
22 *694:B2 *466:34 0
23 *704:B1 *694:A1 0
24 *705:B2 *466:34 0
25 *711:B2 *466:34 0
26 *747:D *921:A 0
27 *747:D *923:A 0
28 *1133:D *921:A 0
29 *58:11 *923:A 0
30 *145:69 *694:A1 0
31 *204:356 *923:A 0
32 *204:365 *923:A 0
33 *246:217 *923:A 0
34 *459:11 *466:34 0
35 *460:12 *466:11 0
36 *460:33 *466:11 0
37 *460:33 *466:34 0
*RES
1 *1133:Q *466:8 17.4868 
2 *466:8 *466:11 7.3486 
3 *466:11 *923:A 25.6125 
4 *466:11 *921:A 16.5054 
5 *466:8 *466:34 8.4296 
6 *466:34 *744:D 20.992 
7 *466:34 *694:A1 31.8446 
*END

*D_NET *467 0.00985297
*CONN
*I *704:B2 I *D sky130_fd_sc_hd__a222oi_1
*I *924:A I *D sky130_fd_sc_hd__nand2_1
*I *926:A I *D sky130_fd_sc_hd__nand2_1
*I *759:C I *D sky130_fd_sc_hd__or4b_1
*I *1134:Q O *D sky130_fd_sc_hd__dfrtp_1
*CAP
1 *704:B2 0.00214483
2 *924:A 0.000333075
3 *926:A 0.000119159
4 *759:C 0.0010641
5 *1134:Q 0
6 *467:11 0.00141508
7 *467:9 0.0015984
8 *467:5 0.00317833
9 *704:B2 *505:9 0
10 *704:B2 *505:29 0
11 *704:B2 *506:47 0
12 *704:B2 *517:32 0
13 *759:C *957:A 0
14 *759:C *989:A 0
15 *685:A1 *704:B2 0
16 *913:B1 *759:C 0
17 *914:A *759:C 0
18 *947:A *759:C 0
19 *947:A *467:11 0
20 *955:A2 *759:C 0
21 *958:B1 *759:C 0
22 *990:B *759:C 0
23 *1142:D *759:C 0
24 *1143:D *759:C 0
25 *1145:D *759:C 0
26 *1149:D *704:B2 0
27 *1155:D *704:B2 0
28 *55:20 *704:B2 0
29 *58:11 *924:A 0
30 *92:10 *704:B2 0
31 *92:10 *467:9 0
32 *93:13 *704:B2 0
33 *93:13 *467:9 0
34 *203:271 *759:C 0
35 *203:271 *926:A 0
36 *203:275 *926:A 0
37 *203:435 *759:C 0
38 *204:345 *924:A 0
39 *204:356 *926:A 0
40 *204:365 *926:A 0
41 *204:402 *759:C 0
42 *204:409 *759:C 0
43 *246:231 *759:C 0
44 *246:240 *759:C 0
45 *246:249 *759:C 0
46 *455:122 *704:B2 0
47 *456:16 *704:B2 0
48 *459:11 *467:9 0
49 *459:13 *467:9 0
50 *459:13 *467:11 0
51 *460:8 *704:B2 0
52 *460:12 *759:C 0
53 *460:12 *467:11 0
54 *461:8 *704:B2 0
55 *462:12 *704:B2 0
56 *463:10 *704:B2 0
57 *463:24 *759:C 0
58 *465:11 *704:B2 0
59 *466:11 *467:9 0
60 *466:11 *467:11 0
61 *466:34 *467:9 0
*RES
1 *1134:Q *467:5 13.8 
2 *467:5 *467:9 7.64069 
3 *467:9 *467:11 0.839733 
4 *467:11 *759:C 37.8782 
5 *467:11 *926:A 19.9154 
6 *467:9 *924:A 24.7725 
7 *467:5 *704:B2 48.4872 
*END

*D_NET *468 0.00894632
*CONN
*I *712:B2 I *D sky130_fd_sc_hd__a222oi_1
*I *744:A_N I *D sky130_fd_sc_hd__and4b_1
*I *929:A I *D sky130_fd_sc_hd__nand2_1
*I *927:A I *D sky130_fd_sc_hd__nand2_1
*I *1135:Q O *D sky130_fd_sc_hd__dfrtp_1
*CAP
1 *712:B2 0
2 *744:A_N 2.0535e-05
3 *929:A 0.000339149
4 *927:A 0.00110376
5 *1135:Q 0
6 *468:55 0.00153754
7 *468:41 0.0029879
8 *468:5 0.00148526
9 *468:4 0.00147218
10 *929:A *1026:A 0
11 *929:A *1029:A 0
12 *929:A *518:28 0
13 *929:A *519:14 0
14 *468:41 *718:A1 0
15 *468:41 *469:40 0
16 *468:41 *470:8 0
17 *468:41 *519:14 0
18 *468:41 *519:39 0
19 *468:55 *469:40 0
20 *672:A2 *468:55 0
21 *694:B2 *468:41 0
22 *705:B2 *468:41 0
23 *707:C *468:55 0
24 *714:B *468:55 0
25 *928:A *927:A 0
26 *928:B *927:A 0
27 *929:B *929:A 0
28 *931:A *929:A 0
29 *950:B *927:A 0
30 *1029:B *929:A 0
31 *1030:A2 *929:A 0
32 *1135:D *927:A 0
33 *1160:D *468:55 0
34 *65:14 *468:41 0
35 *92:10 *929:A 0
36 *92:10 *468:41 0
37 *93:13 *929:A 0
38 *97:10 *468:55 0
39 *134:101 *468:55 0
40 *149:70 *468:55 0
41 *246:211 *929:A 0
42 *459:11 *468:41 0
*RES
1 *1135:Q *468:4 9.3 
2 *468:4 *468:5 0.946429 
3 *468:5 *927:A 32.3357 
4 *468:5 *929:A 25.8848 
5 *468:4 *468:41 29.1298 
6 *468:41 *744:A_N 9.72857 
7 *468:41 *468:55 42.6875 
8 *468:55 *712:B2 9.3 
*END

*D_NET *469 0.0072784
*CONN
*I *744:B I *D sky130_fd_sc_hd__and4b_1
*I *930:A I *D sky130_fd_sc_hd__nand2_1
*I *932:A I *D sky130_fd_sc_hd__nand2_1
*I *721:B2 I *D sky130_fd_sc_hd__a222oi_1
*I *1136:Q O *D sky130_fd_sc_hd__dfrtp_1
*CAP
1 *744:B 0
2 *930:A 0
3 *932:A 0.000152836
4 *721:B2 0.000213051
5 *1136:Q 0.000163425
6 *469:40 0.00116642
7 *469:33 0.00136215
8 *469:14 0.00196079
9 *469:7 0.00225973
10 *721:B2 uo_out[6] 0
11 *721:B2 *567:87 0
12 *469:7 *609:97 0
13 *469:14 *667:B2 0
14 *469:14 *696:B2 0
15 *469:14 *741:B 0
16 *469:14 *984:A 0
17 *469:14 *517:46 0
18 *469:14 *520:12 0
19 *469:14 *520:18 0
20 *469:14 *535:31 0
21 *469:14 *567:93 0
22 *469:33 *471:8 0
23 *469:33 *471:10 0
24 *469:33 *471:15 0
25 *469:33 *520:18 0
26 *667:C2 *469:14 0
27 *668:C *469:14 0
28 *680:A *469:14 0
29 *694:A1 *469:14 0
30 *694:B2 *469:14 0
31 *695:B *469:14 0
32 *704:A2 *469:14 0
33 *704:B1 *469:14 0
34 *707:B *469:14 0
35 *723:A1 *469:14 0
36 *744:D *469:33 0
37 *931:B *469:40 0
38 *1012:A2 *469:14 0
39 *1033:A *932:A 0
40 *1163:D *469:14 0
41 *65:14 *469:40 0
42 *81:8 *469:40 0
43 *226:24 *469:33 0
44 *468:41 *469:40 0
45 *468:55 *469:40 0
*RES
1 *1136:Q *469:7 17.2107 
2 *469:7 *469:14 48.1964 
3 *469:14 *721:B2 18.3089 
4 *469:7 *469:33 12.4464 
5 *469:33 *469:40 30.4018 
6 *469:40 *932:A 13.3089 
7 *469:40 *930:A 9.3 
8 *469:33 *744:B 9.3 
*END

*D_NET *470 0.00408631
*CONN
*I *667:B2 I *D sky130_fd_sc_hd__a222oi_1
*I *745:D_N I *D sky130_fd_sc_hd__nor4b_1
*I *935:A I *D sky130_fd_sc_hd__nand2_1
*I *933:A I *D sky130_fd_sc_hd__nand2_1
*I *1137:Q O *D sky130_fd_sc_hd__dfrtp_1
*CAP
1 *667:B2 0.000485979
2 *745:D_N 0
3 *935:A 0
4 *933:A 0.00032915
5 *1137:Q 0.000104386
6 *470:15 0.000674718
7 *470:8 0.00112364
8 *470:5 0.00136844
9 *667:B2 *667:C1 0
10 *667:B2 *520:18 0
11 *470:8 *718:A1 0
12 *470:8 *732:C_N 0
13 *470:15 *936:A 0
14 *667:A2 *667:B2 0
15 *667:B1 *667:B2 0
16 *667:C2 *667:B2 0
17 *679:B2 *470:8 0
18 *733:D *470:15 0
19 *937:A2 *933:A 0
20 *937:B1 *933:A 0
21 *937:B1 *470:15 0
22 *64:17 *933:A 0
23 *204:308 *933:A 0
24 *246:181 *933:A 0
25 *456:66 *667:B2 0
26 *457:13 *933:A 0
27 *458:8 *470:8 0
28 *458:13 *470:15 0
29 *468:41 *470:8 0
30 *469:14 *667:B2 0
*RES
1 *1137:Q *470:5 11.4786 
2 *470:5 *470:8 22.2321 
3 *470:8 *470:15 11.9107 
4 *470:15 *933:A 25.2286 
5 *470:15 *935:A 9.3 
6 *470:8 *745:D_N 13.8 
7 *470:5 *667:B2 28.8759 
*END

*D_NET *471 0.00320707
*CONN
*I *672:B2 I *D sky130_fd_sc_hd__a22oi_1
*I *744:C I *D sky130_fd_sc_hd__and4b_1
*I *938:A I *D sky130_fd_sc_hd__nand2_1
*I *936:A I *D sky130_fd_sc_hd__nand2_1
*I *1138:Q O *D sky130_fd_sc_hd__dfrtp_1
*CAP
1 *672:B2 0.00032086
2 *744:C 0
3 *938:A 0.000321565
4 *936:A 0.000143745
5 *1138:Q 0.000252712
6 *471:15 0.000920265
7 *471:10 0.000564656
8 *471:8 0.000683272
9 *672:B2 *672:A1 0
10 *471:15 *732:A 0
11 *471:15 *732:B 0
12 *471:15 *518:49 0
13 *471:15 *521:22 0
14 *733:D *938:A 0
15 *733:D *471:15 0
16 *744:D *471:8 0
17 *744:D *471:10 0
18 *744:D *471:15 0
19 *203:878 *938:A 0
20 *204:267 *938:A 0
21 *226:24 *471:15 0
22 *227:20 *471:15 0
23 *457:13 *938:A 0
24 *469:33 *471:8 0
25 *469:33 *471:10 0
26 *469:33 *471:15 0
27 *470:15 *936:A 0
*RES
1 *1138:Q *471:8 19.2643 
2 *471:8 *471:10 2.55357 
3 *471:10 *471:15 14.4286 
4 *471:15 *936:A 12.3 
5 *471:15 *938:A 25.1929 
6 *471:10 *744:C 13.8 
7 *471:8 *672:B2 20.4964 
*END

*D_NET *472 0.0044808
*CONN
*I *727:A I *D sky130_fd_sc_hd__nand2_1
*I *729:A I *D sky130_fd_sc_hd__lpflow_inputiso1p_1
*I *751:B I *D sky130_fd_sc_hd__nor3_1
*I *664:A1 I *D sky130_fd_sc_hd__a22oi_1
*I *1081:Q O *D sky130_fd_sc_hd__dfstp_2
*CAP
1 *727:A 0.000128006
2 *729:A 0.00104647
3 *751:B 0.000104386
4 *664:A1 0.000393067
5 *1081:Q 0
6 *472:10 0.000533575
7 *472:8 0.00161494
8 *472:4 0.000660354
9 *664:A1 *750:B 0
10 *664:A1 *1116:CLK 0
11 *727:A *1177:CLK 0
12 *729:A *670:B2 0
13 *729:A *682:C1 0
14 *729:A *701:A 0
15 *729:A *709:B2 0
16 *729:A *494:9 0
17 *729:A *494:35 0
18 *472:8 *687:A1 0
19 *472:8 *750:B 0
20 *472:8 *1177:CLK 0
21 *472:8 *497:14 0
22 *472:8 *614:30 0
23 *472:8 *614:31 0
24 *472:8 *614:40 0
25 *472:10 *750:B 0
26 *701:B *664:A1 0
27 *701:B *472:10 0
28 *703:A *751:B 0
29 *767:A *751:B 0
30 *1081:D *472:8 0
31 *1081:SET_B *472:8 0
32 *1083:D *729:A 0
33 *139:8 *664:A1 0
34 *203:71 *729:A 0
*RES
1 *1081:Q *472:4 9.3 
2 *472:4 *472:8 16.1875 
3 *472:8 *472:10 0.883929 
4 *472:10 *664:A1 22.7286 
5 *472:10 *751:B 15.9786 
6 *472:8 *729:A 24.6192 
7 *472:4 *727:A 21.1929 
*END

*D_NET *473 0.00805245
*CONN
*I *752:C I *D sky130_fd_sc_hd__nand4_1
*I *681:A1 I *D sky130_fd_sc_hd__a222oi_1
*I *795:A I *D sky130_fd_sc_hd__nand2_1
*I *797:A I *D sky130_fd_sc_hd__nand2_1
*I *1091:Q O *D sky130_fd_sc_hd__dfrtp_1
*CAP
1 *752:C 0
2 *681:A1 0.000522279
3 *795:A 0
4 *797:A 0.00180246
5 *1091:Q 0.000538939
6 *473:41 0.00142301
7 *473:30 0.00116255
8 *473:8 0.00260322
9 *681:A1 *651:A 0
10 *681:A1 *681:B2 0
11 *681:A1 *752:D 0
12 *681:A1 *502:16 0
13 *681:A1 *503:29 0
14 *797:A *798:A 0
15 *797:A *861:A 0
16 *797:A *528:37 0
17 *797:A *536:8 0
18 *473:8 *536:8 0
19 *473:41 *689:A1 0
20 *473:41 *697:A1 0
21 *473:41 *474:33 0
22 *681:A2 *681:A1 0
23 *681:B1 *681:A1 0
24 *766:A *681:A1 0
25 *766:D *473:41 0
26 *808:B1 *797:A 0
27 *812:B *797:A 0
28 *1091:D *473:8 0
29 *1097:RESET_B *473:8 0
30 *1110:D *797:A 0
31 *1111:D *797:A 0
32 *204:76 *473:41 0
33 *204:82 *473:30 0
34 *204:82 *473:41 0
35 *204:83 *797:A 0
36 *204:973 *473:8 0
37 *204:975 *473:8 0
38 *246:99 *797:A 0
*RES
1 *1091:Q *473:8 25.6571 
2 *473:8 *797:A 42.3149 
3 *473:8 *473:30 9.96429 
4 *473:30 *795:A 9.3 
5 *473:30 *473:41 23.625 
6 *473:41 *681:A1 24.9696 
7 *473:41 *752:C 13.8 
*END

*D_NET *474 0.00916775
*CONN
*I *798:A I *D sky130_fd_sc_hd__nand2_1
*I *689:A1 I *D sky130_fd_sc_hd__a222oi_1
*I *752:B I *D sky130_fd_sc_hd__nand4_1
*I *800:A I *D sky130_fd_sc_hd__nand2_1
*I *1092:Q O *D sky130_fd_sc_hd__dfrtp_1
*CAP
1 *798:A 0.000911774
2 *689:A1 0.000561484
3 *752:B 0
4 *800:A 0.000822943
5 *1092:Q 0
6 *474:33 0.0015164
7 *474:13 0.00311061
8 *474:4 0.00224453
9 *689:A1 *689:B2 0
10 *689:A1 *689:C2 0
11 *798:A *807:A 0
12 *798:A *854:A 0
13 *798:A *855:A 0
14 *798:A *858:A 0
15 *798:A *495:40 0
16 *800:A *493:33 0
17 *474:13 *681:C2 0
18 *474:13 *477:33 0
19 *474:13 *495:11 0
20 *474:33 *479:11 0
21 *474:33 *491:32 0
22 *474:33 *493:33 0
23 *474:33 *512:14 0
24 *689:A2 *689:A1 0
25 *689:B1 *689:A1 0
26 *766:D *689:A1 0
27 *766:D *474:33 0
28 *797:A *798:A 0
29 *798:B *798:A 0
30 *859:A *798:A 0
31 *859:B *798:A 0
32 *1110:D *474:13 0
33 *1111:D *798:A 0
34 *31:12 *800:A 0
35 *203:788 *798:A 0
36 *204:93 *798:A 0
37 *204:99 *798:A 0
38 *204:115 *798:A 0
39 *246:99 *798:A 0
40 *473:41 *689:A1 0
41 *473:41 *474:33 0
*RES
1 *1092:Q *474:4 9.3 
2 *474:4 *474:13 18.8597 
3 *474:13 *800:A 24.423 
4 *474:13 *474:33 11.1588 
5 *474:33 *752:B 13.8 
6 *474:33 *689:A1 25.6839 
7 *474:4 *798:A 38.7196 
*END

*D_NET *475 0.00633705
*CONN
*I *801:A I *D sky130_fd_sc_hd__nand2_1
*I *803:A I *D sky130_fd_sc_hd__nand2_1
*I *697:A1 I *D sky130_fd_sc_hd__a222oi_1
*I *755:A I *D sky130_fd_sc_hd__nand4_1
*I *1093:Q O *D sky130_fd_sc_hd__dfrtp_1
*CAP
1 *801:A 0.00032963
2 *803:A 3.2228e-05
3 *697:A1 0.00135901
4 *755:A 0
5 *1093:Q 0
6 *475:35 0.000814402
7 *475:8 0.00235412
8 *475:4 0.00144765
9 *697:A1 uo_out[0] 0
10 *697:A1 *689:C2 0
11 *697:A1 *752:D 0
12 *697:A1 *754:A 0
13 *697:A1 *754:B 0
14 *697:A1 *754:C 0
15 *697:A1 *755:D 0
16 *697:A1 *872:A 0
17 *697:A1 *481:38 0
18 *697:A1 *485:32 0
19 *697:A1 *492:39 0
20 *697:A1 *512:14 0
21 *697:A1 *534:16 0
22 *697:A1 *545:25 0
23 *801:A *831:A 0
24 *803:A *488:12 0
25 *475:8 *755:C 0
26 *475:8 *755:D 0
27 *475:8 *1105:CLK 0
28 *475:8 *481:38 0
29 *475:8 *485:32 0
30 *475:8 *612:8 0
31 *475:8 *612:10 0
32 *475:8 *612:36 0
33 *475:35 *488:12 0
34 *668:A *697:A1 0
35 *668:A *475:8 0
36 *684:A2 *697:A1 0
37 *690:D *697:A1 0
38 *720:C1 *697:A1 0
39 *766:C *697:A1 0
40 *803:B *801:A 0
41 *805:A2 *801:A 0
42 *832:B1 *801:A 0
43 *1093:RESET_B *475:8 0
44 *29:8 *475:8 0
45 *31:12 *475:8 0
46 *85:16 *475:8 0
47 *240:6 *803:A 0
48 *240:6 *475:35 0
49 *455:581 *475:8 0
50 *455:581 *475:35 0
51 *473:41 *697:A1 0
*RES
1 *1093:Q *475:4 9.3 
2 *475:4 *475:8 26.5714 
3 *475:8 *755:A 13.8 
4 *475:8 *697:A1 36.2544 
5 *475:4 *475:35 14.7857 
6 *475:35 *803:A 14.5321 
7 *475:35 *801:A 20.867 
*END

*D_NET *476 0.00663168
*CONN
*I *806:A I *D sky130_fd_sc_hd__nand2_1
*I *752:D I *D sky130_fd_sc_hd__nand4_1
*I *700:A I *D sky130_fd_sc_hd__nand2_1
*I *804:A I *D sky130_fd_sc_hd__nand2_1
*I *1094:Q O *D sky130_fd_sc_hd__dfrtp_1
*CAP
1 *806:A 0.000857002
2 *752:D 0.000315752
3 *700:A 0.000277223
4 *804:A 0.000460119
5 *1094:Q 0
6 *476:20 0.00179202
7 *476:8 0.00186587
8 *476:4 0.0010637
9 *700:A *720:A1 0
10 *700:A *755:C 0
11 *752:D *651:A 0
12 *752:D *754:C 0
13 *752:D *481:38 0
14 *804:A *482:12 0
15 *804:A *487:10 0
16 *806:A *528:11 0
17 *476:20 *1108:CLK 0
18 *476:20 *1162:CLK 0
19 *476:20 *487:10 0
20 *476:20 *613:91 0
21 *476:20 *613:116 0
22 *681:A1 *752:D 0
23 *697:A1 *752:D 0
24 *756:D *700:A 0
25 *756:D *752:D 0
26 *756:D *476:20 0
27 *808:A2 *806:A 0
28 *833:B *804:A 0
29 *1009:A *752:D 0
30 *1099:D *806:A 0
31 *1100:D *806:A 0
32 *1104:D *804:A 0
33 *1104:D *476:20 0
34 *1108:D *804:A 0
35 *1108:D *476:20 0
36 *1162:RESET_B *476:20 0
37 *16:11 *806:A 0
38 *204:123 *806:A 0
39 *204:135 *806:A 0
40 *246:113 *806:A 0
41 *455:553 *476:20 0
42 *455:574 *476:20 0
43 *455:579 *476:20 0
44 *455:851 *476:20 0
*RES
1 *1094:Q *476:4 9.3 
2 *476:4 *476:8 8.85714 
3 *476:8 *804:A 24.2464 
4 *476:8 *476:20 30.8929 
5 *476:20 *700:A 15.0857 
6 *476:20 *752:D 25.4071 
7 *476:4 *806:A 37.1214 
*END

*D_NET *477 0.00777056
*CONN
*I *755:C I *D sky130_fd_sc_hd__nand4_1
*I *713:A1 I *D sky130_fd_sc_hd__a222oi_1
*I *807:A I *D sky130_fd_sc_hd__nand2_1
*I *809:A I *D sky130_fd_sc_hd__nand2_1
*I *1095:Q O *D sky130_fd_sc_hd__dfrtp_1
*CAP
1 *755:C 0.000316869
2 *713:A1 0.000598083
3 *807:A 0.00035594
4 *809:A 0.000155339
5 *1095:Q 0
6 *477:33 0.0028201
7 *477:8 0.00106518
8 *477:4 0.00245905
9 *713:A1 *677:A 0
10 *713:A1 *1105:CLK 0
11 *755:C *1007:A 0
12 *755:C *478:27 0
13 *755:C *481:38 0
14 *809:A *810:A 0
15 *809:A *492:12 0
16 *477:8 *810:A 0
17 *477:8 *482:12 0
18 *477:33 *488:12 0
19 *477:33 *495:11 0
20 *677:B *713:A1 0
21 *700:A *755:C 0
22 *713:A2 *713:A1 0
23 *798:A *807:A 0
24 *851:B *809:A 0
25 *1007:B *755:C 0
26 *1009:A *755:C 0
27 *1110:D *477:33 0
28 *16:11 *807:A 0
29 *29:8 *477:33 0
30 *203:759 *809:A 0
31 *204:115 *807:A 0
32 *204:119 *807:A 0
33 *204:915 *809:A 0
34 *204:917 *809:A 0
35 *246:99 *477:33 0
36 *246:113 *809:A 0
37 *474:13 *477:33 0
38 *475:8 *755:C 0
*RES
1 *1095:Q *477:4 9.3 
2 *477:4 *477:8 16.8393 
3 *477:8 *809:A 17.2643 
4 *477:8 *807:A 21.2286 
5 *477:4 *477:33 28.8919 
6 *477:33 *713:A1 26.5589 
7 *477:33 *755:C 20.7643 
*END

*D_NET *478 0.00837894
*CONN
*I *812:A I *D sky130_fd_sc_hd__nand2_1
*I *755:B I *D sky130_fd_sc_hd__nand4_1
*I *720:A1 I *D sky130_fd_sc_hd__a222oi_1
*I *810:A I *D sky130_fd_sc_hd__nand2_1
*I *1096:Q O *D sky130_fd_sc_hd__dfrtp_1
*CAP
1 *812:A 0.000375921
2 *755:B 0
3 *720:A1 0.00101522
4 *810:A 0.000796636
5 *1096:Q 4.23535e-05
6 *478:27 0.0024424
7 *478:18 0.00233526
8 *478:5 0.00137115
9 *720:A1 *681:C2 0
10 *720:A1 *717:C2 0
11 *810:A *482:12 0
12 *810:A *495:11 0
13 *478:18 *495:11 0
14 *478:18 *496:8 0
15 *478:27 *685:B2 0
16 *478:27 *491:9 0
17 *478:27 *495:11 0
18 *478:27 *496:11 0
19 *675:A *720:A1 0
20 *683:A *720:A1 0
21 *683:C *720:A1 0
22 *700:A *720:A1 0
23 *700:B *720:A1 0
24 *720:B1 *720:A1 0
25 *755:C *478:27 0
26 *799:A2 *810:A 0
27 *809:A *810:A 0
28 *854:B *810:A 0
29 *1111:D *810:A 0
30 *36:11 *810:A 0
31 *36:11 *478:18 0
32 *137:41 *720:A1 0
33 *204:83 *812:A 0
34 *204:915 *810:A 0
35 *204:917 *810:A 0
36 *241:8 *720:A1 0
37 *245:15 *720:A1 0
38 *246:89 *812:A 0
39 *246:99 *810:A 0
40 *246:99 *478:18 0
41 *477:8 *810:A 0
*RES
1 *1096:Q *478:5 10.2464 
2 *478:5 *810:A 36.175 
3 *478:5 *478:18 16.6161 
4 *478:18 *478:27 17.1521 
5 *478:27 *720:A1 40.2375 
6 *478:27 *755:B 9.3 
7 *478:18 *812:A 22.2732 
*END

*D_NET *479 0.00536106
*CONN
*I *813:A I *D sky130_fd_sc_hd__nand2_1
*I *815:A I *D sky130_fd_sc_hd__nand2_1
*I *664:B2 I *D sky130_fd_sc_hd__a22oi_1
*I *754:A I *D sky130_fd_sc_hd__nand4_1
*I *1097:Q O *D sky130_fd_sc_hd__dfrtp_1
*CAP
1 *813:A 3.50807e-05
2 *815:A 0.000313038
3 *664:B2 0.000584947
4 *754:A 0.000224857
5 *1097:Q 0
6 *479:32 0.000432826
7 *479:11 0.00224771
8 *479:4 0.00152261
9 *664:B2 *663:A1 0
10 *664:B2 *870:A 0
11 *754:A *754:B 0
12 *754:A *754:C 0
13 *754:A *545:25 0
14 *479:11 *543:11 0
15 *479:11 *543:21 0
16 *479:11 *545:25 0
17 *665:B *664:B2 0
18 *697:A1 *754:A 0
19 *767:A *664:B2 0
20 *767:D *754:A 0
21 *813:B *479:32 0
22 *814:A2 *815:A 0
23 *814:B1 *815:A 0
24 *814:B1 *479:32 0
25 *1097:D *815:A 0
26 *1114:D *479:11 0
27 *1116:D *664:B2 0
28 *203:1017 *815:A 0
29 *246:83 *815:A 0
30 *246:89 *815:A 0
31 *474:33 *479:11 0
*RES
1 *1097:Q *479:4 9.3 
2 *479:4 *479:11 16.7605 
3 *479:11 *754:A 18.8625 
4 *479:11 *664:B2 26.5589 
5 *479:4 *479:32 1.76786 
6 *479:32 *815:A 25.4071 
7 *479:32 *813:A 10.0321 
*END

*D_NET *480 0.00798605
*CONN
*I *816:A I *D sky130_fd_sc_hd__nand2_1
*I *818:A I *D sky130_fd_sc_hd__nand2_1
*I *755:D I *D sky130_fd_sc_hd__nand4_1
*I *674:B2 I *D sky130_fd_sc_hd__a222oi_1
*I *1098:Q O *D sky130_fd_sc_hd__dfrtp_1
*CAP
1 *816:A 0.000419357
2 *818:A 0.00139699
3 *755:D 5.22451e-05
4 *674:B2 0.000816912
5 *1098:Q 1.21519e-05
6 *480:15 0.00181984
7 *480:9 0.00269236
8 *480:8 0.000776196
9 *674:B2 *717:A1 0
10 *674:B2 *720:B2 0
11 *674:B2 *496:11 0
12 *674:B2 *512:14 0
13 *816:A *860:A 0
14 *816:A *496:11 0
15 *818:A *487:10 0
16 *818:A *491:9 0
17 *818:A *613:91 0
18 *818:A *613:102 0
19 *818:A *613:111 0
20 *480:9 *492:39 0
21 *480:9 *496:11 0
22 *480:15 *492:39 0
23 *480:15 *496:11 0
24 *668:A *755:D 0
25 *697:A1 *755:D 0
26 *707:A *674:B2 0
27 *720:B1 *674:B2 0
28 *1176:D *818:A 0
29 *33:11 *818:A 0
30 *146:99 *674:B2 0
31 *455:459 *818:A 0
32 *455:466 *818:A 0
33 *475:8 *755:D 0
*RES
1 *1098:Q *480:8 17.4868 
2 *480:8 *480:9 1.27213 
3 *480:9 *480:15 3.49053 
4 *480:15 *674:B2 23.7143 
5 *480:15 *755:D 18.3975 
6 *480:9 *818:A 48.8261 
7 *480:8 *816:A 19.2066 
*END

*D_NET *481 0.00794153
*CONN
*I *754:C I *D sky130_fd_sc_hd__nand4_1
*I *681:B2 I *D sky130_fd_sc_hd__a222oi_1
*I *819:A I *D sky130_fd_sc_hd__nand2_1
*I *821:A I *D sky130_fd_sc_hd__nand2_1
*I *1099:Q O *D sky130_fd_sc_hd__dfrtp_1
*CAP
1 *754:C 0.000228294
2 *681:B2 0.000355513
3 *819:A 4.53482e-05
4 *821:A 0.000648606
5 *1099:Q 0.000261822
6 *481:38 0.000926222
7 *481:37 0.0020273
8 *481:8 0.00109784
9 *481:7 0.00235059
10 *681:B2 *503:29 0
11 *754:C *754:D 0
12 *821:A *487:15 0
13 *821:A *492:12 0
14 *481:7 *1099:CLK 0
15 *481:8 *1176:CLK 0
16 *481:8 *613:35 0
17 *481:37 *1112:CLK 0
18 *481:37 *492:39 0
19 *481:37 *613:31 0
20 *481:37 *613:33 0
21 *481:37 *613:35 0
22 *481:37 *613:67 0
23 *481:37 *613:76 0
24 *481:37 *613:87 0
25 *681:A1 *681:B2 0
26 *681:A2 *681:B2 0
27 *681:B1 *681:B2 0
28 *697:A1 *754:C 0
29 *697:A1 *481:38 0
30 *752:D *754:C 0
31 *752:D *481:38 0
32 *754:A *754:C 0
33 *755:C *481:38 0
34 *756:C *754:C 0
35 *806:B *481:8 0
36 *1007:B *481:37 0
37 *1009:A *481:38 0
38 *1096:D *821:A 0
39 *1096:D *481:8 0
40 *1108:D *821:A 0
41 *1108:D *481:37 0
42 *1109:RESET_B *481:37 0
43 *1176:RESET_B *481:8 0
44 *16:11 *481:8 0
45 *33:11 *821:A 0
46 *33:11 *481:8 0
47 *33:11 *481:37 0
48 *204:156 *821:A 0
49 *455:466 *481:37 0
50 *475:8 *481:38 0
*RES
1 *1099:Q *481:7 19.2643 
2 *481:7 *481:8 9.23214 
3 *481:8 *821:A 36.6036 
4 *481:8 *819:A 14.7464 
5 *481:7 *481:37 45.5536 
6 *481:37 *481:38 7.71429 
7 *481:38 *681:B2 21.2196 
8 *481:38 *754:C 18.8536 
*END

*D_NET *482 0.00853678
*CONN
*I *754:B I *D sky130_fd_sc_hd__nand4_1
*I *689:C2 I *D sky130_fd_sc_hd__a222oi_1
*I *824:A I *D sky130_fd_sc_hd__nand2_1
*I *822:A I *D sky130_fd_sc_hd__nand2_1
*I *1100:Q O *D sky130_fd_sc_hd__dfrtp_1
*CAP
1 *754:B 0.000305778
2 *689:C2 0.000238119
3 *824:A 0.00023411
4 *822:A 0
5 *1100:Q 0.00108241
6 *482:37 0.00201404
7 *482:22 0.00264208
8 *482:12 0.00202024
9 *689:C2 *689:B2 0
10 *689:C2 *702:C1 0
11 *689:C2 *512:14 0
12 *754:B *512:14 0
13 *824:A *525:38 0
14 *482:12 *1176:CLK 0
15 *482:12 *487:10 0
16 *482:12 *492:12 0
17 *482:12 *528:7 0
18 *482:22 *493:33 0
19 *482:22 *493:39 0
20 *482:37 *681:C2 0
21 *482:37 *720:B2 0
22 *482:37 *607:63 0
23 *684:A2 *689:C2 0
24 *689:A1 *689:C2 0
25 *689:A2 *754:B 0
26 *697:A1 *689:C2 0
27 *697:A1 *754:B 0
28 *754:A *754:B 0
29 *766:D *754:B 0
30 *804:A *482:12 0
31 *810:A *482:12 0
32 *835:B1 *482:12 0
33 *1176:D *482:12 0
34 *36:11 *482:12 0
35 *144:38 *689:C2 0
36 *477:8 *482:12 0
*RES
1 *1100:Q *482:12 46.3179 
2 *482:12 *822:A 13.8 
3 *482:12 *482:22 6.8081 
4 *482:22 *824:A 18.2905 
5 *482:22 *482:37 12.8329 
6 *482:37 *689:C2 20.9378 
7 *482:37 *754:B 20.2898 
*END

*D_NET *483 0.00654876
*CONN
*I *769:A1 I *D sky130_fd_sc_hd__o22a_1
*I *770:A I *D sky130_fd_sc_hd__nand2_1
*I *750:A I *D sky130_fd_sc_hd__nand4_1
*I *670:B2 I *D sky130_fd_sc_hd__a22oi_1
*I *1082:Q O *D sky130_fd_sc_hd__dfrtp_1
*CAP
1 *769:A1 0
2 *770:A 0.000635475
3 *750:A 0
4 *670:B2 0.000984583
5 *1082:Q 0.000356085
6 *483:17 0.00207679
7 *483:12 0.00193371
8 *483:9 0.000562116
9 *670:B2 *682:C1 0
10 *670:B2 *687:A1 0
11 *670:B2 *547:47 0
12 *770:A *774:A 0
13 *770:A *494:35 0
14 *770:A *497:14 0
15 *770:A *497:43 0
16 *483:9 *497:6 0
17 *483:9 *499:17 0
18 *483:9 *501:10 0
19 *483:12 *497:6 0
20 *483:12 *497:14 0
21 *483:12 *499:17 0
22 *483:17 *701:A 0
23 *483:17 *750:D 0
24 *483:17 *498:13 0
25 *670:B1 *670:B2 0
26 *683:C *670:B2 0
27 *701:B *483:17 0
28 *729:A *670:B2 0
29 *979:A *670:B2 0
30 *1084:D *770:A 0
31 *141:79 *670:B2 0
32 *203:71 *670:B2 0
33 *203:965 *483:9 0
34 *204:38 *483:17 0
35 *239:22 *670:B2 0
36 *246:31 *670:B2 0
*RES
1 *1082:Q *483:9 26.0857 
2 *483:9 *483:12 9.17857 
3 *483:12 *483:17 27.2321 
4 *483:17 *670:B2 36.5383 
5 *483:17 *750:A 9.3 
6 *483:12 *770:A 23.4094 
7 *483:9 *769:A1 9.3 
*END

*D_NET *484 0.00475694
*CONN
*I *827:A I *D sky130_fd_sc_hd__nand2_1
*I *763:D I *D sky130_fd_sc_hd__nand4b_1
*I *825:A I *D sky130_fd_sc_hd__nand2_1
*I *693:C2 I *D sky130_fd_sc_hd__a222oi_1
*I *1101:Q O *D sky130_fd_sc_hd__dfrtp_1
*CAP
1 *827:A 0.000218298
2 *763:D 4.96263e-05
3 *825:A 0.000153512
4 *693:C2 0.000703348
5 *1101:Q 0.00031635
6 *484:38 0.00072654
7 *484:26 0.00109085
8 *484:11 0.00149842
9 *693:C2 *673:C1 0
10 *693:C2 *677:A 0
11 *693:C2 *693:B2 0
12 *693:C2 *706:B2 0
13 *693:C2 *524:10 0
14 *827:A *763:B 0
15 *827:A *828:A 0
16 *827:A *487:22 0
17 *484:11 *673:C1 0
18 *484:11 *677:A 0
19 *484:26 *508:11 0
20 *484:26 *524:10 0
21 *484:38 *763:B 0
22 *706:B1 *693:C2 0
23 *826:A2 *484:38 0
24 *826:B1 *484:26 0
25 *1002:B *825:A 0
26 *1101:D *484:26 0
27 *1158:D *484:26 0
28 *99:14 *484:26 0
29 *203:578 *693:C2 0
30 *203:602 *484:26 0
31 *203:826 *827:A 0
32 *204:229 *825:A 0
33 *204:838 *827:A 0
34 *241:8 *763:D 0
35 *246:141 *827:A 0
*RES
1 *1101:Q *484:11 19.3099 
2 *484:11 *693:C2 29.905 
3 *484:11 *484:26 14.3118 
4 *484:26 *825:A 17.1036 
5 *484:26 *484:38 14.0714 
6 *484:38 *763:D 10.3357 
7 *484:38 *827:A 32.0857 
*END

*D_NET *485 0.00513882
*CONN
*I *754:D I *D sky130_fd_sc_hd__nand4_1
*I *702:C1 I *D sky130_fd_sc_hd__a222oi_1
*I *828:A I *D sky130_fd_sc_hd__nand2_1
*I *830:A I *D sky130_fd_sc_hd__nand2_1
*I *1102:Q O *D sky130_fd_sc_hd__dfrtp_1
*CAP
1 *754:D 0.000144601
2 *702:C1 0.000584768
3 *828:A 0.000148064
4 *830:A 2.56688e-05
5 *1102:Q 0.000143745
6 *485:32 0.00151283
7 *485:12 0.000912833
8 *485:7 0.00166631
9 *702:C1 *689:B2 0
10 *485:7 *612:39 0
11 *485:12 *1103:CLK 0
12 *485:12 *612:8 0
13 *485:12 *612:10 0
14 *485:12 *612:36 0
15 *485:32 *764:B 0
16 *485:32 *764:C 0
17 *485:32 *1105:CLK 0
18 *485:32 *612:36 0
19 *485:32 *612:108 0
20 *668:A *485:32 0
21 *669:A2 *702:C1 0
22 *675:A *702:C1 0
23 *683:A *702:C1 0
24 *689:B1 *702:C1 0
25 *689:C2 *702:C1 0
26 *697:A1 *485:32 0
27 *754:C *754:D 0
28 *766:A *485:32 0
29 *766:B *702:C1 0
30 *766:B *754:D 0
31 *766:C *485:32 0
32 *766:D *754:D 0
33 *800:B *830:A 0
34 *802:A1 *828:A 0
35 *802:A1 *485:12 0
36 *827:A *828:A 0
37 *832:A2 *830:A 0
38 *838:A1 *828:A 0
39 *1102:RESET_B *485:7 0
40 *1103:D *485:12 0
41 *31:12 *485:12 0
42 *137:41 *702:C1 0
43 *137:42 *485:32 0
44 *137:44 *485:32 0
45 *144:38 *702:C1 0
46 *203:826 *828:A 0
47 *204:838 *828:A 0
48 *241:8 *485:12 0
49 *241:8 *485:32 0
50 *245:15 *702:C1 0
51 *246:467 *828:A 0
52 *475:8 *485:32 0
*RES
1 *1102:Q *485:7 16.8 
2 *485:7 *485:12 16.875 
3 *485:12 *830:A 14.3357 
4 *485:12 *828:A 17.1929 
5 *485:7 *485:32 22.2321 
6 *485:32 *702:C1 39.9429 
7 *485:32 *754:D 12.4429 
*END

*D_NET *486 0.00558225
*CONN
*I *833:A I *D sky130_fd_sc_hd__nand2_1
*I *831:A I *D sky130_fd_sc_hd__nand2_1
*I *713:B2 I *D sky130_fd_sc_hd__a222oi_1
*I *763:B I *D sky130_fd_sc_hd__nand4b_1
*I *1103:Q O *D sky130_fd_sc_hd__dfrtp_1
*CAP
1 *833:A 0.000513376
2 *831:A 0.000115978
3 *713:B2 0.000682735
4 *763:B 0.000485867
5 *1103:Q 0.00014075
6 *486:31 0.000846042
7 *486:9 0.00180433
8 *486:5 0.000993169
9 *713:B2 *511:17 0
10 *713:B2 *527:22 0
11 *763:B *511:17 0
12 *763:B *525:38 0
13 *763:B *527:22 0
14 *831:A *490:8 0
15 *486:9 *1103:CLK 0
16 *486:9 *525:5 0
17 *486:31 *490:8 0
18 *713:B1 *713:B2 0
19 *801:A *831:A 0
20 *826:A2 *763:B 0
21 *827:A *763:B 0
22 *835:A1 *833:A 0
23 *835:A2 *833:A 0
24 *835:B1 *833:A 0
25 *1103:D *486:9 0
26 *1103:RESET_B *486:5 0
27 *1174:RESET_B *486:9 0
28 *1175:RESET_B *713:B2 0
29 *29:8 *831:A 0
30 *29:8 *486:31 0
31 *484:38 *763:B 0
*RES
1 *1103:Q *486:5 12.3 
2 *486:5 *486:9 17.7679 
3 *486:9 *763:B 24.3536 
4 *486:9 *713:B2 29.3446 
5 *486:5 *486:31 9.48214 
6 *486:31 *831:A 16.3536 
7 *486:31 *833:A 24.5143 
*END

*D_NET *487 0.00822946
*CONN
*I *834:A I *D sky130_fd_sc_hd__nand2_1
*I *836:A I *D sky130_fd_sc_hd__nand2_1
*I *720:B2 I *D sky130_fd_sc_hd__a222oi_1
*I *763:C I *D sky130_fd_sc_hd__nand4b_1
*I *1104:Q O *D sky130_fd_sc_hd__dfrtp_1
*CAP
1 *834:A 4.91985e-05
2 *836:A 0
3 *720:B2 0.00187093
4 *763:C 0
5 *1104:Q 0.000711947
6 *487:22 0.00253573
7 *487:15 0.00148265
8 *487:10 0.001579
9 *720:B2 *681:C2 0
10 *720:B2 *685:B2 0
11 *720:B2 *717:A1 0
12 *720:B2 *534:20 0
13 *720:B2 *607:63 0
14 *487:22 *489:43 0
15 *674:B2 *720:B2 0
16 *707:A *720:B2 0
17 *720:B1 *720:B2 0
18 *804:A *487:10 0
19 *818:A *487:10 0
20 *821:A *487:15 0
21 *823:A1 *487:15 0
22 *823:B1 *487:15 0
23 *827:A *487:22 0
24 *833:B *487:10 0
25 *833:B *487:15 0
26 *834:B *834:A 0
27 *835:B1 *487:10 0
28 *1102:D *487:22 0
29 *1176:D *487:10 0
30 *1176:D *487:15 0
31 *137:27 *720:B2 0
32 *146:99 *720:B2 0
33 *203:662 *487:22 0
34 *203:665 *487:22 0
35 *203:675 *487:15 0
36 *203:675 *487:22 0
37 *203:815 *487:22 0
38 *203:826 *487:22 0
39 *204:135 *834:A 0
40 *204:156 *487:15 0
41 *476:20 *487:10 0
42 *482:12 *487:10 0
43 *482:37 *720:B2 0
*RES
1 *1104:Q *487:10 29.7821 
2 *487:10 *487:15 22.0357 
3 *487:15 *487:22 18.8571 
4 *487:22 *763:C 13.8 
5 *487:22 *720:B2 42.5407 
6 *487:15 *836:A 9.3 
7 *487:10 *834:A 14.8893 
*END

*D_NET *488 0.00689507
*CONN
*I *666:A1 I *D sky130_fd_sc_hd__a222oi_1
*I *762:D I *D sky130_fd_sc_hd__nand4b_1
*I *837:A I *D sky130_fd_sc_hd__nand2_1
*I *839:A I *D sky130_fd_sc_hd__nand2_1
*I *1105:Q O *D sky130_fd_sc_hd__dfrtp_1
*CAP
1 *666:A1 0.00111181
2 *762:D 0
3 *837:A 0
4 *839:A 0.000568136
5 *1105:Q 0.000107381
6 *488:20 0.0010961
7 *488:12 0.00166021
8 *488:7 0.00235144
9 *666:A1 *685:B2 0
10 *666:A1 *712:C1 0
11 *666:A1 *717:B2 0
12 *666:A1 *983:A 0
13 *666:A1 *1007:A 0
14 *666:A1 *511:9 0
15 *666:A1 *511:13 0
16 *666:A1 *534:20 0
17 *839:A *842:A 0
18 *839:A *843:A 0
19 *839:A *489:43 0
20 *488:12 *490:8 0
21 *488:12 *511:9 0
22 *488:20 *762:B 0
23 *488:20 *845:A 0
24 *488:20 *490:12 0
25 *666:A2 *666:A1 0
26 *666:B1 *666:A1 0
27 *666:C2 *666:A1 0
28 *668:B *666:A1 0
29 *668:C *666:A1 0
30 *693:A2 *666:A1 0
31 *714:D *666:A1 0
32 *803:A *488:12 0
33 *803:B *488:12 0
34 *803:B *488:20 0
35 *838:A2 *488:20 0
36 *838:B1 *839:A 0
37 *838:B1 *488:20 0
38 *840:B *839:A 0
39 *841:A2 *839:A 0
40 *841:B1 *839:A 0
41 *844:B *839:A 0
42 *847:A1 *488:12 0
43 *1102:RESET_B *488:12 0
44 *1103:RESET_B *488:12 0
45 *29:8 *488:12 0
46 *29:8 *488:20 0
47 *203:678 *488:20 0
48 *203:713 *488:20 0
49 *203:718 *488:20 0
50 *204:175 *839:A 0
51 *204:179 *839:A 0
52 *240:6 *666:A1 0
53 *240:6 *488:12 0
54 *455:555 *488:7 0
55 *455:599 *488:12 0
56 *475:35 *488:12 0
57 *477:33 *488:12 0
*RES
1 *1105:Q *488:7 15.9786 
2 *488:7 *488:12 30.0536 
3 *488:12 *488:20 20.7321 
4 *488:20 *839:A 21.1571 
5 *488:20 *837:A 9.3 
6 *488:12 *762:D 9.3 
7 *488:7 *666:A1 28.2939 
*END

*D_NET *489 0.00634414
*CONN
*I *763:A_N I *D sky130_fd_sc_hd__nand4b_1
*I *840:A I *D sky130_fd_sc_hd__nand2_1
*I *842:A I *D sky130_fd_sc_hd__nand2_1
*I *673:C1 I *D sky130_fd_sc_hd__a222oi_1
*I *1106:Q O *D sky130_fd_sc_hd__dfrtp_1
*CAP
1 *763:A_N 0
2 *840:A 0
3 *842:A 9.88248e-05
4 *673:C1 0.0015709
5 *1106:Q 0.000151721
6 *489:43 0.000824964
7 *489:32 0.00135062
8 *489:9 0.00234711
9 *673:C1 *677:A 0
10 *673:C1 *693:A1 0
11 *673:C1 *607:63 0
12 *489:9 *677:A 0
13 *489:32 *527:22 0
14 *489:43 *527:22 0
15 *673:B1 *673:C1 0
16 *673:C2 *673:C1 0
17 *693:C2 *673:C1 0
18 *698:A *673:C1 0
19 *707:A *673:C1 0
20 *768:A *673:C1 0
21 *839:A *842:A 0
22 *839:A *489:43 0
23 *839:B *489:43 0
24 *840:B *842:A 0
25 *841:A2 *489:43 0
26 *841:B1 *489:43 0
27 *842:B *842:A 0
28 *842:B *489:43 0
29 *843:B *842:A 0
30 *844:B *842:A 0
31 *1102:D *489:32 0
32 *1102:D *489:43 0
33 *30:11 *489:43 0
34 *85:16 *673:C1 0
35 *146:16 *673:C1 0
36 *158:20 *673:C1 0
37 *203:641 *489:43 0
38 *203:662 *489:43 0
39 *204:179 *842:A 0
40 *227:20 *673:C1 0
41 *241:8 *489:9 0
42 *245:15 *673:C1 0
43 *484:11 *673:C1 0
44 *487:22 *489:43 0
*RES
1 *1106:Q *489:9 19.0363 
2 *489:9 *673:C1 33.2093 
3 *489:9 *489:32 17.6511 
4 *489:32 *489:43 20.8571 
5 *489:43 *842:A 11.5143 
6 *489:43 *840:A 9.3 
7 *489:32 *763:A_N 13.8 
*END

*D_NET *490 0.00730811
*CONN
*I *681:C2 I *D sky130_fd_sc_hd__a222oi_1
*I *762:B I *D sky130_fd_sc_hd__nand4b_1
*I *843:A I *D sky130_fd_sc_hd__nand2_1
*I *845:A I *D sky130_fd_sc_hd__nand2_1
*I *1107:Q O *D sky130_fd_sc_hd__dfrtp_1
*CAP
1 *681:C2 0.00139094
2 *762:B 0.000121927
3 *843:A 0.000167275
4 *845:A 0.000664234
5 *1107:Q 0
6 *490:12 0.00146441
7 *490:8 0.00143161
8 *490:5 0.00206773
9 *681:C2 *607:63 0
10 *845:A *730:B 0
11 *845:A *491:39 0
12 *720:A1 *681:C2 0
13 *720:B2 *681:C2 0
14 *803:B *490:8 0
15 *821:B *762:B 0
16 *831:A *490:8 0
17 *838:A2 *490:12 0
18 *839:A *843:A 0
19 *843:B *843:A 0
20 *844:A *845:A 0
21 *844:B *843:A 0
22 *1102:RESET_B *490:8 0
23 *1103:RESET_B *490:8 0
24 *29:8 *490:8 0
25 *31:12 *490:12 0
26 *85:16 *681:C2 0
27 *203:718 *762:B 0
28 *204:156 *845:A 0
29 *204:175 *843:A 0
30 *204:875 *845:A 0
31 *245:15 *681:C2 0
32 *246:139 *762:B 0
33 *246:139 *490:12 0
34 *455:599 *490:8 0
35 *474:13 *681:C2 0
36 *482:37 *681:C2 0
37 *486:31 *490:8 0
38 *488:12 *490:8 0
39 *488:20 *762:B 0
40 *488:20 *845:A 0
41 *488:20 *490:12 0
*RES
1 *1107:Q *490:5 13.8 
2 *490:5 *490:8 19.8036 
3 *490:8 *490:12 18.5714 
4 *490:12 *845:A 24.7429 
5 *490:12 *843:A 17.2286 
6 *490:8 *762:B 11.9071 
7 *490:5 *681:C2 35.502 
*END

*D_NET *491 0.00935063
*CONN
*I *762:C I *D sky130_fd_sc_hd__nand4b_1
*I *848:A I *D sky130_fd_sc_hd__nand2_1
*I *846:A I *D sky130_fd_sc_hd__nand2_1
*I *685:B2 I *D sky130_fd_sc_hd__a22oi_1
*I *1108:Q O *D sky130_fd_sc_hd__dfrtp_1
*CAP
1 *762:C 0
2 *848:A 0.000385038
3 *846:A 2.55228e-05
4 *685:B2 0.00175552
5 *1108:Q 0.000539414
6 *491:39 0.00116449
7 *491:32 0.00196982
8 *491:9 0.00351083
9 *685:B2 *496:11 0
10 *846:A *1050:A 0
11 *491:9 *495:11 0
12 *491:9 *511:9 0
13 *491:9 *613:111 0
14 *491:32 *493:33 0
15 *491:32 *493:39 0
16 *491:39 *730:B 0
17 *491:39 *1049:A 0
18 *666:A1 *685:B2 0
19 *684:A1 *685:B2 0
20 *685:A1 *685:B2 0
21 *707:A *685:B2 0
22 *707:C *685:B2 0
23 *714:D *685:B2 0
24 *720:B2 *685:B2 0
25 *803:B *491:39 0
26 *818:A *491:9 0
27 *845:A *491:39 0
28 *847:A1 *491:39 0
29 *848:B *848:A 0
30 *849:B *848:A 0
31 *850:A2 *848:A 0
32 *850:B1 *848:A 0
33 *1050:B *848:A 0
34 *33:7 *848:A 0
35 *203:560 *685:B2 0
36 *203:678 *491:39 0
37 *203:713 *491:39 0
38 *227:20 *685:B2 0
39 *474:33 *491:32 0
40 *478:27 *685:B2 0
41 *478:27 *491:9 0
*RES
1 *1108:Q *491:9 19.6751 
2 *491:9 *685:B2 24.5905 
3 *491:9 *491:32 15.4308 
4 *491:32 *491:39 17.1725 
5 *491:39 *846:A 14.3804 
6 *491:39 *848:A 21.9161 
7 *491:32 *762:C 13.8 
*END

*D_NET *492 0.00749707
*CONN
*I *764:A I *D sky130_fd_sc_hd__or4_1
*I *692:A I *D sky130_fd_sc_hd__nand2_1
*I *851:A I *D sky130_fd_sc_hd__nand2_1
*I *849:A I *D sky130_fd_sc_hd__nand2_1
*I *1109:Q O *D sky130_fd_sc_hd__dfrtp_1
*CAP
1 *764:A 0
2 *692:A 0.000284496
3 *851:A 0.000220324
4 *849:A 0.000215483
5 *1109:Q 0
6 *492:39 0.00191312
7 *492:12 0.00183541
8 *492:5 0.00302823
9 *692:A *764:C 0
10 *692:A *764:D 0
11 *492:39 *861:A 0
12 *492:39 *512:14 0
13 *651:B *692:A 0
14 *697:A1 *492:39 0
15 *713:A2 *692:A 0
16 *766:C *692:A 0
17 *809:A *492:12 0
18 *821:A *492:12 0
19 *849:B *492:12 0
20 *851:B *851:A 0
21 *851:B *492:12 0
22 *853:A *851:A 0
23 *1096:D *492:12 0
24 *1109:RESET_B *492:39 0
25 *16:11 *492:12 0
26 *33:11 *849:A 0
27 *33:11 *492:12 0
28 *36:11 *492:12 0
29 *36:11 *492:39 0
30 *203:759 *492:12 0
31 *245:15 *692:A 0
32 *455:469 *492:12 0
33 *455:473 *492:12 0
34 *480:9 *492:39 0
35 *480:15 *492:39 0
36 *481:37 *492:39 0
37 *482:12 *492:12 0
*RES
1 *1109:Q *492:5 13.8 
2 *492:5 *492:12 36.25 
3 *492:12 *849:A 23.0321 
4 *492:12 *851:A 13.9607 
5 *492:5 *492:39 24.2816 
6 *492:39 *692:A 15.175 
7 *492:39 *764:A 9.3 
*END

*D_NET *493 0.0109628
*CONN
*I *762:A_N I *D sky130_fd_sc_hd__nand4b_1
*I *854:A I *D sky130_fd_sc_hd__nand2_1
*I *852:A I *D sky130_fd_sc_hd__nand2_1
*I *706:A1 I *D sky130_fd_sc_hd__a22oi_1
*I *1110:Q O *D sky130_fd_sc_hd__dfrtp_1
*CAP
1 *762:A_N 1.21519e-05
2 *854:A 6.25093e-05
3 *852:A 0.000250982
4 *706:A1 0.00144833
5 *1110:Q 0.00134854
6 *493:39 0.00160585
7 *493:33 0.00237105
8 *493:13 0.0038634
9 *706:A1 *693:A1 0
10 *706:A1 *716:A 0
11 *706:A1 *720:C2 0
12 *706:A1 *983:A 0
13 *706:A1 *531:19 0
14 *493:13 *716:A 0
15 *493:39 *730:B 0
16 *493:39 *528:11 0
17 *706:B1 *706:A1 0
18 *798:A *854:A 0
19 *800:A *493:33 0
20 *808:B1 *493:39 0
21 *853:A *852:A 0
22 *854:B *854:A 0
23 *1110:D *493:39 0
24 *204:917 *852:A 0
25 *204:917 *854:A 0
26 *474:33 *493:33 0
27 *482:22 *493:33 0
28 *482:22 *493:39 0
29 *491:32 *493:33 0
30 *491:32 *493:39 0
*RES
1 *1110:Q *493:13 21.952 
2 *493:13 *706:A1 23.0789 
3 *493:13 *493:33 8.11243 
4 *493:33 *493:39 8.07867 
5 *493:39 *852:A 19.3804 
6 *493:39 *854:A 15.3446 
7 *493:33 *762:A_N 17.4868 
*END

*D_NET *494 0.00595463
*CONN
*I *773:A I *D sky130_fd_sc_hd__nand2_1
*I *771:A I *D sky130_fd_sc_hd__nand2_1
*I *750:B I *D sky130_fd_sc_hd__nand4_1
*I *682:C1 I *D sky130_fd_sc_hd__a222oi_1
*I *1083:Q O *D sky130_fd_sc_hd__dfrtp_1
*CAP
1 *773:A 0.000167511
2 *771:A 0
3 *750:B 0.000204615
4 *682:C1 0.000577781
5 *1083:Q 0
6 *494:35 0.00130015
7 *494:9 0.00167717
8 *494:5 0.00202741
9 *682:C1 *652:A 0
10 *682:C1 *687:A1 0
11 *682:C1 *721:C2 0
12 *750:B *614:17 0
13 *750:B *614:30 0
14 *773:A *777:A 0
15 *494:9 *721:C2 0
16 *494:9 *753:C 0
17 *494:9 *615:77 0
18 *494:35 *701:A 0
19 *494:35 *709:B2 0
20 *494:35 *774:A 0
21 *494:35 *497:14 0
22 *494:35 *499:17 0
23 *494:35 *615:77 0
24 *664:A1 *750:B 0
25 *670:B2 *682:C1 0
26 *701:B *682:C1 0
27 *703:B *682:C1 0
28 *729:A *682:C1 0
29 *729:A *494:9 0
30 *729:A *494:35 0
31 *751:C *750:B 0
32 *756:B *494:9 0
33 *770:A *494:35 0
34 *774:B *773:A 0
35 *1083:D *494:9 0
36 *1083:D *494:35 0
37 *1116:RESET_B *494:9 0
38 *142:30 *682:C1 0
39 *455:387 *494:35 0
40 *455:389 *494:9 0
41 *455:389 *494:35 0
42 *472:8 *750:B 0
43 *472:10 *750:B 0
*RES
1 *1083:Q *494:5 13.8 
2 *494:5 *494:9 8.43788 
3 *494:9 *682:C1 25.1492 
4 *494:9 *750:B 21.7368 
5 *494:5 *494:35 13.684 
6 *494:35 *771:A 13.8 
7 *494:35 *773:A 17.7286 
*END

*D_NET *495 0.00924484
*CONN
*I *857:A I *D sky130_fd_sc_hd__nand2_1
*I *855:A I *D sky130_fd_sc_hd__nand2_1
*I *764:C I *D sky130_fd_sc_hd__or4_1
*I *712:C1 I *D sky130_fd_sc_hd__a222oi_1
*I *1111:Q O *D sky130_fd_sc_hd__dfrtp_1
*CAP
1 *857:A 0
2 *855:A 0.000275861
3 *764:C 0.000400678
4 *712:C1 0.00136351
5 *1111:Q 0
6 *495:40 0.000460232
7 *495:11 0.00416219
8 *495:4 0.00258237
9 *712:C1 *688:A1 0
10 *712:C1 *983:A 0
11 *712:C1 *511:13 0
12 *495:11 *511:9 0
13 *495:11 *511:13 0
14 *651:B *764:C 0
15 *666:A1 *712:C1 0
16 *668:C *712:C1 0
17 *692:A *764:C 0
18 *700:B *764:C 0
19 *718:A2 *712:C1 0
20 *798:A *855:A 0
21 *798:A *495:40 0
22 *810:A *495:11 0
23 *855:B *855:A 0
24 *859:A *495:40 0
25 *983:B *712:C1 0
26 *1111:D *495:11 0
27 *85:16 *712:C1 0
28 *85:16 *495:11 0
29 *137:44 *764:C 0
30 *145:38 *712:C1 0
31 *203:788 *855:A 0
32 *204:99 *855:A 0
33 *204:99 *495:40 0
34 *241:8 *764:C 0
35 *246:99 *495:11 0
36 *474:13 *495:11 0
37 *477:33 *495:11 0
38 *478:18 *495:11 0
39 *478:27 *495:11 0
40 *485:32 *764:C 0
41 *491:9 *495:11 0
*RES
1 *1111:Q *495:4 9.3 
2 *495:4 *495:11 31.8384 
3 *495:11 *712:C1 24.537 
4 *495:11 *764:C 26.1296 
5 *495:4 *495:40 8.625 
6 *495:40 *855:A 19.8536 
7 *495:40 *857:A 13.8 
*END

*D_NET *496 0.00653645
*CONN
*I *858:A I *D sky130_fd_sc_hd__nand2_1
*I *860:A I *D sky130_fd_sc_hd__nand2_1
*I *764:B I *D sky130_fd_sc_hd__or4_1
*I *717:C2 I *D sky130_fd_sc_hd__a222oi_1
*I *1112:Q O *D sky130_fd_sc_hd__dfrtp_1
*CAP
1 *858:A 0.000758761
2 *860:A 0.000277326
3 *764:B 8.96052e-05
4 *717:C2 0.000489311
5 *1112:Q 0
6 *496:11 0.00216371
7 *496:8 0.00193055
8 *496:4 0.000827189
9 *717:C2 *717:A1 0
10 *668:A *717:C2 0
11 *668:A *764:B 0
12 *674:B2 *496:11 0
13 *685:B2 *496:11 0
14 *707:A *496:11 0
15 *717:B1 *717:C2 0
16 *720:A1 *717:C2 0
17 *798:A *858:A 0
18 *816:A *860:A 0
19 *816:A *496:11 0
20 *146:80 *717:C2 0
21 *204:93 *858:A 0
22 *246:99 *496:8 0
23 *478:18 *496:8 0
24 *478:27 *496:11 0
25 *480:9 *496:11 0
26 *480:15 *496:11 0
27 *485:32 *764:B 0
*RES
1 *1112:Q *496:4 9.3 
2 *496:4 *496:8 9.40107 
3 *496:8 *496:11 9.15027 
4 *496:11 *717:C2 24.1214 
5 *496:11 *764:B 15.8982 
6 *496:8 *860:A 18.4707 
7 *496:4 *858:A 35.3714 
*END

*D_NET *497 0.00770011
*CONN
*I *774:A I *D sky130_fd_sc_hd__nand2_1
*I *776:A I *D sky130_fd_sc_hd__nand2_1
*I *750:C I *D sky130_fd_sc_hd__nand4_1
*I *687:A1 I *D sky130_fd_sc_hd__a22oi_1
*I *1084:Q O *D sky130_fd_sc_hd__dfrtp_1
*CAP
1 *774:A 0.000211124
2 *776:A 0.000109832
3 *750:C 4.53482e-05
4 *687:A1 0.00140379
5 *1084:Q 0.000163126
6 *497:43 0.000776295
7 *497:14 0.00291063
8 *497:6 0.00207996
9 *687:A1 *663:B2 0
10 *687:A1 *709:A1 0
11 *687:A1 *513:30 0
12 *687:A1 *537:12 0
13 *687:A1 *607:82 0
14 *497:6 *499:17 0
15 *497:6 *501:10 0
16 *497:14 *701:A 0
17 *497:14 *499:17 0
18 *497:14 *501:10 0
19 *497:14 *569:11 0
20 *497:43 *498:7 0
21 *497:43 *498:13 0
22 *497:43 *498:42 0
23 *670:B2 *687:A1 0
24 *682:C1 *687:A1 0
25 *701:B *687:A1 0
26 *701:B *750:C 0
27 *701:B *497:14 0
28 *708:A1 *497:14 0
29 *770:A *774:A 0
30 *770:A *497:14 0
31 *770:A *497:43 0
32 *774:B *774:A 0
33 *775:A1 *776:A 0
34 *776:B *497:43 0
35 *1084:D *497:14 0
36 *1084:D *497:43 0
37 *132:76 *687:A1 0
38 *136:16 *687:A1 0
39 *140:32 *687:A1 0
40 *203:71 *687:A1 0
41 *203:955 *497:14 0
42 *203:988 *774:A 0
43 *203:988 *497:43 0
44 *246:604 *497:43 0
45 *455:358 *497:14 0
46 *472:8 *687:A1 0
47 *472:8 *497:14 0
48 *483:9 *497:6 0
49 *483:12 *497:6 0
50 *483:12 *497:14 0
51 *494:35 *774:A 0
52 *494:35 *497:14 0
*RES
1 *1084:Q *497:6 17.5679 
2 *497:6 *497:14 15.3721 
3 *497:14 *687:A1 27.1913 
4 *497:14 *750:C 14.7464 
5 *497:6 *497:43 19.987 
6 *497:43 *776:A 19.7636 
7 *497:43 *774:A 18.486 
*END

*D_NET *498 0.00833994
*CONN
*I *779:A I *D sky130_fd_sc_hd__nand2_1
*I *777:A I *D sky130_fd_sc_hd__nand2_1
*I *750:D I *D sky130_fd_sc_hd__nand4_1
*I *696:A1 I *D sky130_fd_sc_hd__a222oi_1
*I *1085:Q O *D sky130_fd_sc_hd__dfrtp_1
*CAP
1 *779:A 0.000175502
2 *777:A 0.000339805
3 *750:D 2.0535e-05
4 *696:A1 0
5 *1085:Q 0.000202783
6 *498:42 0.000879767
7 *498:25 0.00152103
8 *498:13 0.00308742
9 *498:7 0.0021131
10 *498:13 *501:10 0
11 *498:25 *646:A 0
12 *498:25 *658:B 0
13 *498:25 *569:34 0
14 *498:25 *570:49 0
15 *498:25 *570:53 0
16 *498:42 *501:10 0
17 *655:B *498:25 0
18 *676:A1 *498:25 0
19 *696:A2 *498:25 0
20 *696:B1 *498:25 0
21 *701:B *498:13 0
22 *701:B *498:25 0
23 *773:A *777:A 0
24 *779:B *779:A 0
25 *1085:D *498:13 0
26 *133:7 *498:25 0
27 *134:14 *498:25 0
28 *146:16 *498:25 0
29 *147:10 *498:25 0
30 *203:965 *498:42 0
31 *203:976 *498:42 0
32 *203:989 *777:A 0
33 *203:993 *777:A 0
34 *203:1058 *777:A 0
35 *246:593 *498:13 0
36 *246:604 *498:13 0
37 *483:17 *750:D 0
38 *483:17 *498:13 0
39 *497:43 *498:7 0
40 *497:43 *498:13 0
41 *497:43 *498:42 0
*RES
1 *1085:Q *498:7 18.0321 
2 *498:7 *498:13 36.9821 
3 *498:13 *498:25 41.8839 
4 *498:25 *696:A1 9.3 
5 *498:13 *750:D 9.72857 
6 *498:7 *498:42 16.8214 
7 *498:42 *777:A 21.2464 
8 *498:42 *779:A 17.8 
*END

*D_NET *499 0.00575611
*CONN
*I *780:A I *D sky130_fd_sc_hd__nand2_1
*I *782:A I *D sky130_fd_sc_hd__nand2_1
*I *753:A I *D sky130_fd_sc_hd__nand4_1
*I *701:A I *D sky130_fd_sc_hd__nand2_1
*I *1086:Q O *D sky130_fd_sc_hd__dfrtp_1
*CAP
1 *780:A 0.000154434
2 *782:A 4.96263e-05
3 *753:A 0.000335729
4 *701:A 0.000839396
5 *1086:Q 0
6 *499:39 0.000640001
7 *499:17 0.00223805
8 *499:4 0.00149887
9 *701:A *569:11 0
10 *753:A *753:B 0
11 *753:A *753:C 0
12 *753:A *500:8 0
13 *753:A *502:10 0
14 *729:A *701:A 0
15 *769:B1 *753:A 0
16 *769:B1 *499:17 0
17 *769:B2 *499:17 0
18 *781:A2 *780:A 0
19 *782:B *499:39 0
20 *784:A1 *780:A 0
21 *784:A2 *782:A 0
22 *784:A2 *499:39 0
23 *784:B1 *782:A 0
24 *785:B *499:39 0
25 *787:A1 *499:17 0
26 *787:A2 *499:39 0
27 *1084:D *499:17 0
28 *1087:D *499:17 0
29 *1087:D *499:39 0
30 *1088:D *499:17 0
31 *10:14 *780:A 0
32 *203:71 *701:A 0
33 *204:38 *701:A 0
34 *246:621 *780:A 0
35 *455:418 *753:A 0
36 *483:9 *499:17 0
37 *483:12 *499:17 0
38 *483:17 *701:A 0
39 *494:35 *701:A 0
40 *494:35 *499:17 0
41 *497:6 *499:17 0
42 *497:14 *701:A 0
43 *497:14 *499:17 0
*RES
1 *1086:Q *499:4 9.3 
2 *499:4 *499:17 27.0478 
3 *499:17 *701:A 22.5383 
4 *499:17 *753:A 24.7725 
5 *499:4 *499:39 9.16071 
6 *499:39 *782:A 10.3357 
7 *499:39 *780:A 21.7286 
*END

*D_NET *500 0.00855534
*CONN
*I *783:A I *D sky130_fd_sc_hd__nand2_1
*I *785:A I *D sky130_fd_sc_hd__nand2_1
*I *709:B2 I *D sky130_fd_sc_hd__a22oi_1
*I *753:C I *D sky130_fd_sc_hd__nand4_1
*I *1087:Q O *D sky130_fd_sc_hd__dfrtp_1
*CAP
1 *783:A 0.000141178
2 *785:A 0
3 *709:B2 0.00236955
4 *753:C 0.000226048
5 *1087:Q 2.56688e-05
6 *500:48 0.000860573
7 *500:8 0.00339143
8 *500:7 0.00154089
9 *709:B2 uio_out[4] 0
10 *709:B2 *709:A1 0
11 *709:B2 *716:A 0
12 *709:B2 *547:47 0
13 *709:B2 *565:17 0
14 *753:C *753:B 0
15 *753:C *615:77 0
16 *500:8 *615:77 0
17 *500:8 *615:86 0
18 *500:8 *615:95 0
19 *500:8 *615:104 0
20 *500:8 *615:115 0
21 *500:48 *615:115 0
22 *729:A *709:B2 0
23 *753:A *753:C 0
24 *753:A *500:8 0
25 *782:B *783:A 0
26 *784:B1 *783:A 0
27 *785:B *783:A 0
28 *1082:D *500:8 0
29 *1084:D *500:8 0
30 *1085:D *500:8 0
31 *1087:D *783:A 0
32 *10:14 *500:48 0
33 *13:11 *753:C 0
34 *132:76 *709:B2 0
35 *142:10 *709:B2 0
36 *189:22 *709:B2 0
37 *494:9 *753:C 0
38 *494:35 *709:B2 0
*RES
1 *1087:Q *500:7 14.3357 
2 *500:7 *500:8 17.8839 
3 *500:8 *753:C 18.9339 
4 *500:8 *709:B2 30.8519 
5 *500:7 *500:48 28.9107 
6 *500:48 *785:A 9.3 
7 *500:48 *783:A 12.4607 
*END

*D_NET *501 0.00903634
*CONN
*I *786:A I *D sky130_fd_sc_hd__nand2_1
*I *788:A I *D sky130_fd_sc_hd__nand2_1
*I *753:B I *D sky130_fd_sc_hd__nand4_1
*I *721:C2 I *D sky130_fd_sc_hd__a222oi_1
*I *1088:Q O *D sky130_fd_sc_hd__dfrtp_1
*CAP
1 *786:A 0.000129684
2 *788:A 0.000380754
3 *753:B 4.28658e-05
4 *721:C2 0.00245885
5 *1088:Q 4.38508e-05
6 *501:21 0.0030198
7 *501:10 0.00184292
8 *501:7 0.00111762
9 *721:C2 *663:B2 0
10 *721:C2 *663:C1 0
11 *721:C2 *716:A 0
12 *721:C2 *721:A1 0
13 *721:C2 *502:16 0
14 *721:C2 *503:20 0
15 *721:C2 *532:47 0
16 *721:C2 *567:87 0
17 *721:C2 *607:82 0
18 *721:C2 *615:13 0
19 *753:B *502:10 0
20 *788:A *791:A 0
21 *788:A *503:9 0
22 *501:10 *1052:A 0
23 *501:10 *1090:CLK 0
24 *501:21 *753:D 0
25 *501:21 *503:9 0
26 *682:C1 *721:C2 0
27 *690:B *721:C2 0
28 *714:A *721:C2 0
29 *753:A *753:B 0
30 *753:C *753:B 0
31 *756:B *721:C2 0
32 *783:B *786:A 0
33 *786:B *786:A 0
34 *787:A1 *786:A 0
35 *787:A1 *501:7 0
36 *788:B *788:A 0
37 *790:A2 *788:A 0
38 *793:A2 *788:A 0
39 *793:A2 *501:10 0
40 *1088:D *501:7 0
41 *1090:D *501:10 0
42 *1116:RESET_B *721:C2 0
43 *13:11 *721:C2 0
44 *13:11 *753:B 0
45 *132:76 *721:C2 0
46 *149:15 *721:C2 0
47 *203:80 *721:C2 0
48 *203:82 *721:C2 0
49 *203:976 *501:10 0
50 *203:1004 *788:A 0
51 *203:1079 *786:A 0
52 *203:1079 *501:10 0
53 *246:31 *721:C2 0
54 *246:58 *721:C2 0
55 *455:418 *501:21 0
56 *455:428 *501:10 0
57 *455:430 *501:10 0
58 *483:9 *501:10 0
59 *494:9 *721:C2 0
60 *497:6 *501:10 0
61 *497:14 *501:10 0
62 *498:13 *501:10 0
63 *498:42 *501:10 0
*RES
1 *1088:Q *501:7 14.7464 
2 *501:7 *501:10 25.875 
3 *501:10 *501:21 15.5893 
4 *501:21 *721:C2 33.2502 
5 *501:21 *753:B 14.8357 
6 *501:10 *788:A 17.3714 
7 *501:7 *786:A 16.6214 
*END

*D_NET *502 0.00551816
*CONN
*I *791:A I *D sky130_fd_sc_hd__nand2_1
*I *789:A I *D sky130_fd_sc_hd__nand2_1
*I *752:A I *D sky130_fd_sc_hd__nand4_1
*I *651:A I *D sky130_fd_sc_hd__nand2_1
*I *1089:Q O *D sky130_fd_sc_hd__dfrtp_1
*CAP
1 *791:A 0.000199453
2 *789:A 0
3 *752:A 0
4 *651:A 0.000413447
5 *1089:Q 0.000306524
6 *502:36 0.000974215
7 *502:16 0.00147834
8 *502:10 0.00214618
9 *502:10 *503:20 0
10 *502:16 *765:B 0
11 *502:16 *544:12 0
12 *502:16 *545:10 0
13 *502:36 *863:A 0
14 *502:36 *1052:A 0
15 *502:36 *536:11 0
16 *681:A1 *651:A 0
17 *681:A1 *502:16 0
18 *721:C2 *502:16 0
19 *752:D *651:A 0
20 *753:A *502:10 0
21 *753:B *502:10 0
22 *756:C *651:A 0
23 *756:D *651:A 0
24 *756:D *502:16 0
25 *766:D *651:A 0
26 *766:D *502:16 0
27 *767:B *502:16 0
28 *788:A *791:A 0
29 *1007:B *502:16 0
30 *1009:B *651:A 0
31 *1089:RESET_B *502:10 0
32 *203:32 *502:16 0
33 *203:1004 *791:A 0
34 *203:1013 *791:A 0
35 *204:45 *502:16 0
36 *204:999 *791:A 0
37 *246:58 *502:16 0
38 *246:74 *502:36 0
39 *455:418 *502:10 0
40 *455:428 *502:10 0
*RES
1 *1089:Q *502:10 23.9154 
2 *502:10 *502:16 21.9468 
3 *502:16 *651:A 27.3357 
4 *502:16 *752:A 9.3 
5 *502:10 *502:36 6.47232 
6 *502:36 *789:A 13.8 
7 *502:36 *791:A 18.2643 
*END

*D_NET *503 0.00643946
*CONN
*I *792:A I *D sky130_fd_sc_hd__nand2_1
*I *794:A I *D sky130_fd_sc_hd__nand2_1
*I *674:A1 I *D sky130_fd_sc_hd__a222oi_1
*I *753:D I *D sky130_fd_sc_hd__nand4_1
*I *1090:Q O *D sky130_fd_sc_hd__dfrtp_1
*CAP
1 *792:A 0.000141968
2 *794:A 0.000105242
3 *674:A1 0
4 *753:D 0.000119788
5 *1090:Q 0
6 *503:29 0.00177182
7 *503:20 0.00220331
8 *503:9 0.0012007
9 *503:4 0.000896631
10 *503:29 *674:C2 0
11 *503:29 *1113:CLK 0
12 *674:B1 *503:29 0
13 *681:A1 *503:29 0
14 *681:B1 *503:29 0
15 *681:B2 *503:29 0
16 *681:C1 *503:29 0
17 *721:C2 *503:20 0
18 *766:A *503:29 0
19 *788:A *503:9 0
20 *794:B *794:A 0
21 *1114:D *503:29 0
22 *144:39 *503:29 0
23 *144:41 *503:29 0
24 *203:993 *792:A 0
25 *203:1013 *792:A 0
26 *204:76 *503:29 0
27 *204:999 *792:A 0
28 *204:1010 *792:A 0
29 *246:58 *794:A 0
30 *246:58 *503:20 0
31 *246:74 *503:20 0
32 *455:418 *753:D 0
33 *455:455 *503:29 0
34 *501:21 *753:D 0
35 *501:21 *503:9 0
36 *502:10 *503:20 0
*RES
1 *1090:Q *503:4 9.3 
2 *503:4 *503:9 15.875 
3 *503:9 *753:D 11.8 
4 *503:9 *503:20 11.9107 
5 *503:20 *503:29 42.3616 
6 *503:29 *674:A1 9.3 
7 *503:20 *794:A 15.9964 
8 *503:4 *792:A 21.4607 
*END

*D_NET *504 0.013474
*CONN
*I *747:A_N I *D sky130_fd_sc_hd__nand4b_1
*I *663:C1 I *D sky130_fd_sc_hd__a222oi_1
*I *959:A I *D sky130_fd_sc_hd__nand2_1
*I *957:A I *D sky130_fd_sc_hd__nand2_1
*I *1145:Q O *D sky130_fd_sc_hd__dfrtp_1
*CAP
1 *747:A_N 0
2 *663:C1 0.00409524
3 *959:A 0
4 *957:A 0.000350058
5 *1145:Q 0.00113905
6 *504:37 0.00510566
7 *504:19 0.00150272
8 *504:15 0.0012813
9 *663:C1 *686:A1 0
10 *663:C1 *696:C2 0
11 *663:C1 *760:B 0
12 *663:C1 *534:16 0
13 *663:C1 *539:32 0
14 *663:C1 *542:43 0
15 *504:15 *1131:CLK 0
16 *504:15 *608:24 0
17 *504:37 *908:A 0
18 *504:37 *963:A 0
19 *504:37 *989:A 0
20 *504:37 *542:43 0
21 *721:C2 *663:C1 0
22 *747:D *504:15 0
23 *747:D *504:19 0
24 *748:D *504:15 0
25 *759:B *504:37 0
26 *759:C *957:A 0
27 *761:B *663:C1 0
28 *761:B *504:37 0
29 *761:C *504:37 0
30 *916:A *504:37 0
31 *955:A2 *957:A 0
32 *956:A *504:15 0
33 *956:A *504:19 0
34 *958:B1 *957:A 0
35 *991:B *504:37 0
36 *1012:A1 *663:C1 0
37 *1146:D *663:C1 0
38 *132:21 *663:C1 0
39 *146:16 *663:C1 0
40 *203:80 *663:C1 0
41 *203:82 *663:C1 0
42 *203:207 *663:C1 0
43 *203:219 *504:37 0
44 *203:223 *504:37 0
45 *203:225 *504:37 0
46 *203:227 *504:37 0
47 *203:232 *504:37 0
48 *203:271 *957:A 0
49 *204:370 *957:A 0
50 *204:389 *957:A 0
51 *204:398 *957:A 0
52 *204:402 *504:37 0
53 *204:409 *504:37 0
54 *204:537 *663:C1 0
55 *204:545 *663:C1 0
56 *204:624 *663:C1 0
57 *239:22 *663:C1 0
58 *239:22 *504:37 0
59 *246:31 *663:C1 0
60 *465:11 *504:15 0
61 *465:25 *504:15 0
*RES
1 *1145:Q *504:15 33.4429 
2 *504:15 *504:19 7.5 
3 *504:19 *957:A 21.6214 
4 *504:19 *504:37 22.9464 
5 *504:37 *959:A 13.8 
6 *504:37 *663:C1 38.225 
7 *504:15 *747:A_N 9.3 
*END

*D_NET *505 0.00710577
*CONN
*I *736:A I *D sky130_fd_sc_hd__nor3_1
*I *678:B2 I *D sky130_fd_sc_hd__a222oi_1
*I *987:A I *D sky130_fd_sc_hd__nand2_1
*I *989:A I *D sky130_fd_sc_hd__nand2_1
*I *1155:Q O *D sky130_fd_sc_hd__dfrtp_1
*CAP
1 *736:A 0.000442895
2 *678:B2 0.000120235
3 *987:A 2.55425e-05
4 *989:A 0.000683974
5 *1155:Q 1.21912e-05
6 *505:29 0.00139197
7 *505:9 0.00214872
8 *505:8 0.00228024
9 *678:B2 *678:A1 0
10 *736:A uo_out[7] 0
11 *736:A *696:B2 0
12 *736:A *872:A 0
13 *987:A *748:A 0
14 *987:A *968:A 0
15 *989:A *908:A 0
16 *505:9 *1019:A 0
17 *505:9 *516:38 0
18 *505:29 *678:C2 0
19 *505:29 *872:A 0
20 *505:29 *516:38 0
21 *505:29 *531:19 0
22 *505:29 *542:11 0
23 *673:B2 *736:A 0
24 *673:B2 *505:29 0
25 *680:A *678:B2 0
26 *685:A1 *505:29 0
27 *704:B2 *505:9 0
28 *704:B2 *505:29 0
29 *723:A1 *736:A 0
30 *736:C *736:A 0
31 *743:A *736:A 0
32 *759:B *989:A 0
33 *759:C *989:A 0
34 *760:A_N *989:A 0
35 *909:A *989:A 0
36 *910:A2 *989:A 0
37 *984:B *678:B2 0
38 *990:B *989:A 0
39 *1129:D *989:A 0
40 *1129:D *505:9 0
41 *1147:D *989:A 0
42 *1147:D *505:9 0
43 *1149:D *505:9 0
44 *195:10 *736:A 0
45 *463:21 *505:29 0
46 *504:37 *989:A 0
*RES
1 *1155:Q *505:8 17.4868 
2 *505:8 *505:9 5.2358 
3 *505:9 *989:A 26.0446 
4 *505:9 *987:A 17.7904 
5 *505:8 *505:29 3.00173 
6 *505:29 *678:B2 19.9154 
7 *505:29 *736:A 22.1492 
*END

*D_NET *506 0.00930296
*CONN
*I *735:B I *D sky130_fd_sc_hd__nand2_1
*I *688:B2 I *D sky130_fd_sc_hd__a222oi_1
*I *992:A I *D sky130_fd_sc_hd__nand2_1
*I *990:A I *D sky130_fd_sc_hd__nand2_1
*I *1156:Q O *D sky130_fd_sc_hd__dfrtp_1
*CAP
1 *735:B 0.000399619
2 *688:B2 2.64557e-05
3 *992:A 0.00132634
4 *990:A 0.00103188
5 *1156:Q 0
6 *506:47 0.00185732
7 *506:5 0.00279416
8 *506:4 0.00186718
9 *990:A *608:106 0
10 *506:5 *608:106 0
11 *506:47 *507:11 0
12 *506:47 *520:12 0
13 *506:47 *530:44 0
14 *506:47 *607:12 0
15 *668:C *506:47 0
16 *685:A1 *506:47 0
17 *694:B2 *506:47 0
18 *704:B2 *506:47 0
19 *736:C *735:B 0
20 *991:A *990:A 0
21 *1025:B *992:A 0
22 *1156:D *990:A 0
23 *1156:D *506:5 0
24 *1156:RESET_B *506:5 0
25 *65:14 *992:A 0
26 *149:18 *735:B 0
27 *176:17 *735:B 0
28 *195:10 *735:B 0
29 *203:445 *990:A 0
30 *227:20 *506:47 0
31 *456:66 *735:B 0
*RES
1 *1156:Q *506:4 9.3 
2 *506:4 *506:5 9.16071 
3 *506:5 *990:A 30.9607 
4 *506:5 *992:A 38.2864 
5 *506:4 *506:47 16.992 
6 *506:47 *688:B2 14.3179 
7 *506:47 *735:B 22.5768 
*END

*D_NET *507 0.0103552
*CONN
*I *696:B2 I *D sky130_fd_sc_hd__a222oi_1
*I *736:B I *D sky130_fd_sc_hd__nor3_1
*I *995:A I *D sky130_fd_sc_hd__nand2_1
*I *993:A I *D sky130_fd_sc_hd__nand2_1
*I *1157:Q O *D sky130_fd_sc_hd__dfrtp_1
*CAP
1 *696:B2 0.00120611
2 *736:B 2.56688e-05
3 *995:A 0.000751487
4 *993:A 0.00093058
5 *1157:Q 0.000452896
6 *507:41 0.00159851
7 *507:14 0.00312619
8 *507:11 0.00226376
9 *696:B2 *674:C2 0
10 *696:B2 *684:B1 0
11 *696:B2 *567:119 0
12 *995:A *730:B 0
13 *507:11 *520:12 0
14 *668:C *507:11 0
15 *679:A1 *507:11 0
16 *695:B *736:B 0
17 *707:B *696:B2 0
18 *711:B2 *507:11 0
19 *723:A1 *696:B2 0
20 *736:A *696:B2 0
21 *743:D *696:B2 0
22 *147:14 *696:B2 0
23 *147:25 *696:B2 0
24 *227:20 *507:14 0
25 *227:20 *507:41 0
26 *469:14 *696:B2 0
27 *506:47 *507:11 0
*RES
1 *1157:Q *507:11 22.4932 
2 *507:11 *507:14 9.31633 
3 *507:14 *993:A 20.8128 
4 *507:14 *995:A 20.1642 
5 *507:11 *507:41 8.80879 
6 *507:41 *736:B 14.3357 
7 *507:41 *696:B2 49.0054 
*END

*D_NET *508 0.00469992
*CONN
*I *739:A I *D sky130_fd_sc_hd__nand2_1
*I *706:B2 I *D sky130_fd_sc_hd__a22oi_1
*I *998:A I *D sky130_fd_sc_hd__nand2_1
*I *996:A I *D sky130_fd_sc_hd__nand2_1
*I *1158:Q O *D sky130_fd_sc_hd__dfrtp_1
*CAP
1 *739:A 5.47601e-05
2 *706:B2 0.000843973
3 *998:A 0.000202783
4 *996:A 0.000468747
5 *1158:Q 0.000347655
6 *508:16 0.000920467
7 *508:15 0.00127601
8 *508:11 0.000585519
9 *739:A *739:B 0
10 *739:A *510:18 0
11 *996:A *1043:A 0
12 *996:A *524:10 0
13 *996:A *524:13 0
14 *508:11 *1158:CLK 0
15 *508:15 *740:A 0
16 *508:16 *524:10 0
17 *693:C2 *706:B2 0
18 *706:B1 *706:B2 0
19 *740:C *739:A 0
20 *740:C *508:15 0
21 *996:B *996:A 0
22 *1158:D *508:11 0
23 *1158:RESET_B *508:11 0
24 *1160:D *706:B2 0
25 *1160:D *508:16 0
26 *203:578 *706:B2 0
27 *203:578 *508:16 0
28 *203:580 *508:16 0
29 *203:582 *996:A 0
30 *203:596 *996:A 0
31 *203:630 *996:A 0
32 *203:844 *998:A 0
33 *204:235 *998:A 0
34 *218:10 *706:B2 0
35 *218:10 *508:15 0
36 *484:26 *508:11 0
*RES
1 *1158:Q *508:11 25.6393 
2 *508:11 *508:15 8.32143 
3 *508:15 *508:16 5.58929 
4 *508:16 *996:A 23.9607 
5 *508:16 *998:A 18.0321 
6 *508:15 *706:B2 32.9786 
7 *508:11 *739:A 10.5679 
*END

*D_NET *509 0.0032031
*CONN
*I *711:A1 I *D sky130_fd_sc_hd__a22oi_1
*I *1001:A I *D sky130_fd_sc_hd__nand2_1
*I *740:A I *D sky130_fd_sc_hd__nor3_1
*I *999:A I *D sky130_fd_sc_hd__nand2_1
*I *1159:Q O *D sky130_fd_sc_hd__dfrtp_1
*CAP
1 *711:A1 0.000606026
2 *1001:A 4.32091e-05
3 *740:A 0.000235785
4 *999:A 1.85992e-05
5 *1159:Q 0
6 *509:19 0.000439424
7 *509:11 0.00071653
8 *509:5 0.00114353
9 *711:A1 *688:A1 0
10 *711:A1 *523:11 0
11 *740:A *740:B 0
12 *509:11 *522:14 0
13 *509:11 *523:11 0
14 *705:B2 *509:11 0
15 *706:B1 *711:A1 0
16 *707:C *711:A1 0
17 *707:C *509:11 0
18 *714:B *711:A1 0
19 *740:C *740:A 0
20 *1003:A *1001:A 0
21 *1003:A *509:19 0
22 *1003:B *1001:A 0
23 *1036:A1 *509:11 0
24 *1160:D *740:A 0
25 *1160:D *509:19 0
26 *1171:D *509:11 0
27 *203:578 *711:A1 0
28 *246:155 *509:11 0
29 *246:155 *509:19 0
30 *508:15 *740:A 0
*RES
1 *1159:Q *509:5 13.8 
2 *509:5 *509:11 16.5357 
3 *509:11 *999:A 9.72857 
4 *509:11 *509:19 3.41071 
5 *509:19 *740:A 23.3536 
6 *509:19 *1001:A 10.2643 
7 *509:5 *711:A1 27.1571 
*END

*D_NET *510 0.00409528
*CONN
*I *717:B2 I *D sky130_fd_sc_hd__a222oi_1
*I *1002:A I *D sky130_fd_sc_hd__nand2_1
*I *739:B I *D sky130_fd_sc_hd__nand2_1
*I *1004:A I *D sky130_fd_sc_hd__nand2_1
*I *1160:Q O *D sky130_fd_sc_hd__dfrtp_1
*CAP
1 *717:B2 0.000643526
2 *1002:A 0.0001114
3 *739:B 4.62038e-05
4 *1004:A 8.57316e-05
5 *1160:Q 0.00030118
6 *510:18 0.000534507
7 *510:8 0.000945327
8 *510:7 0.0014274
9 *717:B2 *666:C1 0
10 *717:B2 *713:C1 0
11 *717:B2 *511:17 0
12 *717:B2 *607:63 0
13 *717:B2 *612:54 0
14 *1004:A *525:38 0
15 *510:7 *1160:CLK 0
16 *510:8 *511:17 0
17 *510:8 *525:38 0
18 *510:18 *740:B 0
19 *666:A1 *717:B2 0
20 *668:C *717:B2 0
21 *669:A2 *717:B2 0
22 *714:D *717:B2 0
23 *739:A *739:B 0
24 *739:A *510:18 0
25 *740:C *739:B 0
26 *1006:A1 *1002:A 0
27 *1006:A1 *510:18 0
28 *1006:B1 *510:18 0
29 *1158:D *1002:A 0
30 *30:11 *1004:A 0
31 *30:11 *510:7 0
32 *30:11 *510:8 0
33 *85:16 *717:B2 0
34 *85:16 *510:8 0
35 *99:14 *717:B2 0
36 *144:70 *717:B2 0
37 *146:99 *717:B2 0
*RES
1 *1160:Q *510:7 20.0857 
2 *510:7 *510:8 11.0536 
3 *510:8 *1004:A 15.7464 
4 *510:8 *510:18 12.4286 
5 *510:18 *739:B 10.2643 
6 *510:18 *1002:A 20.7821 
7 *510:7 *717:B2 28.3625 
*END

*D_NET *511 0.00588169
*CONN
*I *1007:A I *D sky130_fd_sc_hd__nand2_1
*I *666:C1 I *D sky130_fd_sc_hd__a222oi_1
*I *740:B I *D sky130_fd_sc_hd__nor3_1
*I *1005:A I *D sky130_fd_sc_hd__nand2_1
*I *1161:Q O *D sky130_fd_sc_hd__dfrtp_1
*CAP
1 *1007:A 0.000105768
2 *666:C1 0.0003705
3 *740:B 0.000546693
4 *1005:A 4.04283e-05
5 *1161:Q 0.000238058
6 *511:17 0.00149092
7 *511:13 0.0020099
8 *511:9 0.00107942
9 *511:17 *525:38 0
10 *666:A1 *1007:A 0
11 *666:A1 *511:9 0
12 *666:A1 *511:13 0
13 *666:C2 *666:C1 0
14 *668:B *666:C1 0
15 *712:C1 *511:13 0
16 *713:B1 *666:C1 0
17 *713:B2 *511:17 0
18 *717:B2 *666:C1 0
19 *717:B2 *511:17 0
20 *740:A *740:B 0
21 *740:C *740:B 0
22 *755:C *1007:A 0
23 *763:B *511:17 0
24 *144:70 *666:C1 0
25 *203:578 *740:B 0
26 *240:6 *1007:A 0
27 *240:6 *511:9 0
28 *488:12 *511:9 0
29 *491:9 *511:9 0
30 *495:11 *511:9 0
31 *495:11 *511:13 0
32 *510:8 *511:17 0
33 *510:18 *740:B 0
*RES
1 *1161:Q *511:9 19.8597 
2 *511:9 *511:13 6.0514 
3 *511:13 *511:17 25.0446 
4 *511:17 *1005:A 10.2464 
5 *511:17 *740:B 29.8714 
6 *511:13 *666:C1 21.9161 
7 *511:9 *1007:A 19.6118 
*END

*D_NET *512 0.00611715
*CONN
*I *1008:A I *D sky130_fd_sc_hd__nand2_1
*I *1010:A I *D sky130_fd_sc_hd__nand2_1
*I *741:A I *D sky130_fd_sc_hd__nand2_1
*I *673:A1 I *D sky130_fd_sc_hd__a222oi_1
*I *1162:Q O *D sky130_fd_sc_hd__dfrtp_1
*CAP
1 *1008:A 0.000103035
2 *1010:A 0.000195106
3 *741:A 0
4 *673:A1 5.51667e-05
5 *1162:Q 0.000373918
6 *512:31 0.00124005
7 *512:14 0.00238652
8 *512:8 0.00176336
9 *1010:A *697:C2 0
10 *512:8 *1162:CLK 0
11 *512:14 *720:C2 0
12 *512:31 uo_out[4] 0
13 *673:B1 *673:A1 0
14 *673:B1 *512:31 0
15 *673:B2 *512:31 0
16 *674:B2 *512:14 0
17 *675:C *512:14 0
18 *684:A2 *512:14 0
19 *689:C2 *512:14 0
20 *690:B *1010:A 0
21 *690:D *512:31 0
22 *697:A1 *512:14 0
23 *707:A *512:14 0
24 *754:B *512:14 0
25 *756:B *512:14 0
26 *1007:B *1008:A 0
27 *1010:B *1010:A 0
28 *1162:RESET_B *512:8 0
29 *134:30 *512:14 0
30 *147:25 *512:14 0
31 *147:70 *512:31 0
32 *149:15 *1010:A 0
33 *149:15 *512:31 0
34 *240:6 *1008:A 0
35 *240:6 *512:8 0
36 *474:33 *512:14 0
37 *492:39 *512:14 0
*RES
1 *1162:Q *512:8 21.7732 
2 *512:8 *512:14 13.1374 
3 *512:14 *673:A1 14.9741 
4 *512:14 *512:31 15.9537 
5 *512:31 *741:A 13.8 
6 *512:31 *1010:A 18.1393 
7 *512:8 *1008:A 16.2018 
*END

*D_NET *513 0.0101182
*CONN
*I *682:A1 I *D sky130_fd_sc_hd__a222oi_1
*I *742:A I *D sky130_fd_sc_hd__nor3_1
*I *1011:A I *D sky130_fd_sc_hd__nand2_1
*I *1013:A I *D sky130_fd_sc_hd__nand2_1
*I *1163:Q O *D sky130_fd_sc_hd__dfrtp_1
*CAP
1 *682:A1 0.0009752
2 *742:A 0.000259377
3 *1011:A 0.000485984
4 *1013:A 0.00242258
5 *1163:Q 6.20329e-05
6 *513:53 0.00164467
7 *513:30 0.00133989
8 *513:5 0.00292843
9 *1011:A *567:71 0
10 *1013:A *687:B2 0
11 *1013:A *709:A1 0
12 *1013:A *537:12 0
13 *1013:A *538:15 0
14 *1013:A *541:21 0
15 *1013:A *550:19 0
16 *1013:A *567:71 0
17 *513:30 *687:B2 0
18 *513:30 *567:71 0
19 *663:B1 *682:A1 0
20 *665:A *682:A1 0
21 *676:A1 *1011:A 0
22 *682:B1 *682:A1 0
23 *687:A1 *513:30 0
24 *690:B *513:30 0
25 *715:A1 *1011:A 0
26 *715:A1 *513:30 0
27 *716:B *682:A1 0
28 *721:C1 *513:30 0
29 *1012:B1 *1011:A 0
30 *1120:D *1013:A 0
31 *1124:D *1013:A 0
32 *1125:D *1013:A 0
33 *1163:D *1011:A 0
34 *1163:D *1013:A 0
35 *1163:D *513:30 0
36 *1163:RESET_B *513:5 0
37 *1504:A *742:A 0
38 *1504:A *513:53 0
39 *134:30 *682:A1 0
40 *139:22 *513:53 0
41 *141:64 *682:A1 0
42 *141:77 *682:A1 0
43 *142:15 *513:53 0
44 *145:8 *513:53 0
45 *145:21 *742:A 0
46 *149:15 *1011:A 0
47 *149:15 *513:30 0
48 *195:10 *1011:A 0
*RES
1 *1163:Q *513:5 10.6571 
2 *513:5 *1013:A 38.4173 
3 *513:5 *513:30 14.6429 
4 *513:30 *1011:A 24.5143 
5 *513:30 *513:53 17.75 
6 *513:53 *742:A 19.6929 
7 *513:53 *682:A1 34.2196 
*END

*D_NET *514 0.00620273
*CONN
*I *686:B2 I *D sky130_fd_sc_hd__a22o_1
*I *741:B I *D sky130_fd_sc_hd__nand2_1
*I *1016:A I *D sky130_fd_sc_hd__nand2_1
*I *1014:A I *D sky130_fd_sc_hd__nand2_1
*I *1164:Q O *D sky130_fd_sc_hd__dfrtp_1
*CAP
1 *686:B2 6.28436e-05
2 *741:B 0.000602084
3 *1016:A 0.000155337
4 *1014:A 0.000454337
5 *1164:Q 0
6 *514:33 0.00231158
7 *514:5 0.000789783
8 *514:4 0.00182676
9 *686:B2 *686:A1 0
10 *1014:A *1164:CLK 0
11 *1016:A *610:27 0
12 *514:33 *721:A1 0
13 *514:33 *1508:A 0
14 *514:33 *539:8 0
15 *514:33 *549:8 0
16 *514:33 *549:12 0
17 *676:A1 *686:B2 0
18 *676:A1 *741:B 0
19 *678:A2 *741:B 0
20 *1012:A2 *741:B 0
21 *1018:A2 *1016:A 0
22 *1164:RESET_B *514:5 0
23 *1164:RESET_B *514:33 0
24 *203:82 *514:33 0
25 *203:90 *1016:A 0
26 *203:90 *514:33 0
27 *204:529 *1016:A 0
28 *469:14 *741:B 0
*RES
1 *1164:Q *514:4 9.3 
2 *514:4 *514:5 3.82143 
3 *514:5 *1014:A 18.7821 
4 *514:5 *1016:A 21.675 
5 *514:4 *514:33 24.5762 
6 *514:33 *741:B 27.1661 
7 *514:33 *686:B2 15.2911 
*END

*D_NET *515 0.00764198
*CONN
*I *671:A1 I *D sky130_fd_sc_hd__a22o_1
*I *962:A I *D sky130_fd_sc_hd__nand2_1
*I *960:A I *D sky130_fd_sc_hd__nand2_1
*I *746:A I *D sky130_fd_sc_hd__nand2_1
*I *1146:Q O *D sky130_fd_sc_hd__dfrtp_1
*CAP
1 *671:A1 0.000747245
2 *962:A 2.09628e-05
3 *960:A 0.000118825
4 *746:A 3.50807e-05
5 *1146:Q 0
6 *515:21 0.000820035
7 *515:9 0.00239407
8 *515:8 0.00221863
9 *515:5 0.00128714
10 *671:A1 *671:B2 0
11 *671:A1 *704:C1 0
12 *671:A1 *1128:CLK 0
13 *671:A1 *611:101 0
14 *515:8 *704:C1 0
15 *515:8 *1128:CLK 0
16 *515:8 *1130:CLK 0
17 *515:9 *969:A 0
18 *515:9 *1149:CLK 0
19 *515:21 *746:B 0
20 *515:21 *966:A 0
21 *515:21 *529:12 0
22 *515:21 *529:14 0
23 *671:A2 *671:A1 0
24 *671:B1 *671:A1 0
25 *704:A2 *671:A1 0
26 *960:B *960:A 0
27 *960:B *515:21 0
28 *961:B *960:A 0
29 *961:B *515:21 0
30 *962:B *960:A 0
31 *962:B *962:A 0
32 *962:B *515:21 0
33 *964:A2 *960:A 0
34 *965:B *515:21 0
35 *967:A *515:21 0
36 *969:B *515:21 0
37 *970:B1 *515:9 0
38 *1117:D *671:A1 0
39 *1117:RESET_B *671:A1 0
40 *54:24 *515:8 0
41 *204:554 *515:21 0
42 *204:559 *515:21 0
43 *204:580 *515:21 0
44 *455:28 *671:A1 0
45 *455:37 *671:A1 0
46 *456:66 *515:9 0
*RES
1 *1146:Q *515:5 13.8 
2 *515:5 *515:8 16.7679 
3 *515:8 *515:9 35.0357 
4 *515:9 *746:A 10.0321 
5 *515:9 *515:21 23.6964 
6 *515:21 *960:A 12.1482 
7 *515:21 *962:A 9.88929 
8 *515:5 *671:A1 29.8 
*END

*D_NET *516 0.00829559
*CONN
*I *697:B2 I *D sky130_fd_sc_hd__a222oi_1
*I *742:B I *D sky130_fd_sc_hd__nor3_1
*I *1019:A I *D sky130_fd_sc_hd__nand2_1
*I *1017:A I *D sky130_fd_sc_hd__nand2_1
*I *1165:Q O *D sky130_fd_sc_hd__dfrtp_1
*CAP
1 *697:B2 0.00056728
2 *742:B 0
3 *1019:A 0.000941353
4 *1017:A 0.000467628
5 *1165:Q 0
6 *516:38 0.00221636
7 *516:18 0.00311289
8 *516:4 0.000990079
9 *1017:A *1165:CLK 0
10 *1017:A *539:8 0
11 *1019:A *971:A 0
12 *1019:A *974:A 0
13 *1019:A *610:20 0
14 *516:18 *1508:A 0
15 *516:18 *531:41 0
16 *516:18 *607:12 0
17 *516:18 *610:137 0
18 *516:38 *678:C2 0
19 *516:38 *872:A 0
20 *516:38 *531:19 0
21 *516:38 *542:11 0
22 *516:38 *607:11 0
23 *697:C1 *697:B2 0
24 *698:C *697:B2 0
25 *742:C *516:38 0
26 *743:D *697:B2 0
27 *1021:A *1019:A 0
28 *1118:D *516:18 0
29 *1147:D *1019:A 0
30 *1165:D *1017:A 0
31 *1165:RESET_B *1017:A 0
32 *145:21 *516:38 0
33 *204:533 *1017:A 0
34 *239:22 *1019:A 0
35 *239:22 *516:38 0
36 *455:250 *1017:A 0
37 *455:263 *1017:A 0
38 *505:9 *1019:A 0
39 *505:9 *516:38 0
40 *505:29 *516:38 0
*RES
1 *1165:Q *516:4 9.3 
2 *516:4 *1017:A 28.0857 
3 *516:4 *516:18 19.7225 
4 *516:18 *1019:A 23.1486 
5 *516:18 *516:38 14.9286 
6 *516:38 *742:B 9.3 
7 *516:38 *697:B2 21.2018 
*END

*D_NET *517 0.0105033
*CONN
*I *732:D_N I *D sky130_fd_sc_hd__nor4bb_1
*I *704:A1 I *D sky130_fd_sc_hd__a222oi_1
*I *1020:A I *D sky130_fd_sc_hd__nand2_1
*I *1022:A I *D sky130_fd_sc_hd__nand2_1
*I *1166:Q O *D sky130_fd_sc_hd__dfrtp_1
*CAP
1 *732:D_N 0
2 *704:A1 2.0535e-05
3 *1020:A 8.56922e-05
4 *1022:A 0
5 *1166:Q 4.56186e-05
6 *517:46 0.00155023
7 *517:32 0.00254554
8 *517:17 0.00169693
9 *517:11 0.0026605
10 *517:8 0.00189826
11 *1020:A *971:A 0
12 *517:8 *1147:CLK 0
13 *517:8 *607:12 0
14 *517:11 *608:116 0
15 *517:11 *608:126 0
16 *517:11 *608:134 0
17 *517:17 *748:B 0
18 *517:17 *971:A 0
19 *517:17 *530:54 0
20 *517:32 *704:C1 0
21 *517:46 *718:A1 0
22 *517:46 *520:12 0
23 *517:46 *520:18 0
24 *517:46 *521:8 0
25 *517:46 *535:31 0
26 *679:A1 *517:46 0
27 *679:A2 *517:46 0
28 *680:A *517:46 0
29 *680:B *517:46 0
30 *684:A1 *517:46 0
31 *694:B2 *517:46 0
32 *704:A2 *517:46 0
33 *704:B1 *517:32 0
34 *704:B1 *517:46 0
35 *704:B2 *517:32 0
36 *733:D *517:46 0
37 *748:C *517:17 0
38 *749:B *517:46 0
39 *945:A *517:17 0
40 *969:B *517:17 0
41 *984:B *517:46 0
42 *1022:B *517:17 0
43 *1024:A2 *517:17 0
44 *1024:B1 *517:17 0
45 *1155:RESET_B *517:32 0
46 *197:13 *517:46 0
47 *204:559 *1020:A 0
48 *204:559 *517:17 0
49 *246:177 *517:46 0
50 *246:213 *517:17 0
51 *246:217 *517:17 0
52 *469:14 *517:46 0
*RES
1 *1166:Q *517:8 19.3357 
2 *517:8 *517:11 22.6964 
3 *517:11 *517:17 42.3929 
4 *517:17 *1022:A 9.3 
5 *517:11 *1020:A 15.7464 
6 *517:8 *517:32 20.4375 
7 *517:32 *704:A1 9.72857 
8 *517:32 *517:46 43.9554 
9 *517:46 *732:D_N 9.3 
*END

*D_NET *518 0.00743051
*CONN
*I *712:A1 I *D sky130_fd_sc_hd__a222oi_1
*I *732:A I *D sky130_fd_sc_hd__nor4bb_1
*I *1023:A I *D sky130_fd_sc_hd__nand2_1
*I *1025:A I *D sky130_fd_sc_hd__nand2_1
*I *1167:Q O *D sky130_fd_sc_hd__dfrtp_1
*CAP
1 *712:A1 0
2 *732:A 0.000210096
3 *1023:A 0
4 *1025:A 0.000128597
5 *1167:Q 0
6 *518:49 0.00152871
7 *518:28 0.00315685
8 *518:8 0.000558404
9 *518:4 0.00184785
10 *732:A *672:A1 0
11 *732:A *521:22 0
12 *1025:A *1026:A 0
13 *518:8 *1026:A 0
14 *518:28 *1032:A 0
15 *518:28 *519:14 0
16 *518:28 *519:39 0
17 *518:28 *520:35 0
18 *518:28 *521:21 0
19 *518:49 *672:A1 0
20 *518:49 *1172:CLK 0
21 *688:C1 *518:49 0
22 *694:A1 *518:49 0
23 *705:B2 *518:28 0
24 *711:B2 *518:49 0
25 *718:A2 *518:49 0
26 *744:D *518:49 0
27 *749:A *732:A 0
28 *749:B *732:A 0
29 *929:A *518:28 0
30 *931:A *518:28 0
31 *934:A2 *518:28 0
32 *1023:B *1025:A 0
33 *1167:D *518:8 0
34 *1171:RESET_B *518:49 0
35 *92:10 *518:28 0
36 *134:101 *518:49 0
37 *203:578 *518:49 0
38 *204:325 *1025:A 0
39 *218:10 *518:49 0
40 *226:24 *518:28 0
41 *246:177 *732:A 0
42 *455:680 *518:49 0
43 *455:682 *518:49 0
44 *471:15 *732:A 0
45 *471:15 *518:49 0
*RES
1 *1167:Q *518:4 9.3 
2 *518:4 *518:8 13.6607 
3 *518:8 *1025:A 16.6571 
4 *518:8 *1023:A 13.8 
5 *518:4 *518:28 16.92 
6 *518:28 *732:A 18.3804 
7 *518:28 *518:49 46.9598 
8 *518:49 *712:A1 9.3 
*END

*D_NET *519 0.00633753
*CONN
*I *718:A1 I *D sky130_fd_sc_hd__a22oi_1
*I *732:C_N I *D sky130_fd_sc_hd__nor4bb_1
*I *1028:A I *D sky130_fd_sc_hd__nand2_1
*I *1026:A I *D sky130_fd_sc_hd__nand2_1
*I *1168:Q O *D sky130_fd_sc_hd__dfrtp_1
*CAP
1 *718:A1 0.000744685
2 *732:C_N 0.000121774
3 *1028:A 0
4 *1026:A 0.000329558
5 *1168:Q 0.00046942
6 *519:39 0.0016979
7 *519:14 0.00100145
8 *519:8 0.00197275
9 *718:A1 *521:8 0
10 *732:C_N *521:8 0
11 *679:B2 *718:A1 0
12 *705:B2 *519:39 0
13 *929:A *1026:A 0
14 *929:A *519:14 0
15 *931:A *519:14 0
16 *1025:A *1026:A 0
17 *1028:B *1026:A 0
18 *1029:B *1026:A 0
19 *1030:A2 *1026:A 0
20 *1030:B1 *1026:A 0
21 *1030:B1 *519:14 0
22 *1141:RESET_B *519:8 0
23 *1167:RESET_B *519:14 0
24 *65:14 *519:8 0
25 *81:8 *519:8 0
26 *93:13 *1026:A 0
27 *93:13 *519:14 0
28 *203:348 *1026:A 0
29 *246:211 *1026:A 0
30 *246:213 *1026:A 0
31 *455:725 *519:8 0
32 *459:11 *519:14 0
33 *468:41 *718:A1 0
34 *468:41 *519:14 0
35 *468:41 *519:39 0
36 *470:8 *718:A1 0
37 *470:8 *732:C_N 0
38 *517:46 *718:A1 0
39 *518:8 *1026:A 0
40 *518:28 *519:14 0
41 *518:28 *519:39 0
*RES
1 *1168:Q *519:8 27.8082 
2 *519:8 *519:14 13.1432 
3 *519:14 *1026:A 25.425 
4 *519:14 *1028:A 9.3 
5 *519:8 *519:39 6.46813 
6 *519:39 *732:C_N 16.5054 
7 *519:39 *718:A1 30.7732 
*END

*D_NET *520 0.00671305
*CONN
*I *667:C1 I *D sky130_fd_sc_hd__a222oi_1
*I *1031:A I *D sky130_fd_sc_hd__nand2_1
*I *1029:A I *D sky130_fd_sc_hd__nand2_1
*I *732:B I *D sky130_fd_sc_hd__nor4bb_1
*I *1169:Q O *D sky130_fd_sc_hd__dfrtp_1
*CAP
1 *667:C1 6.50276e-05
2 *1031:A 0
3 *1029:A 0.00034225
4 *732:B 5.12113e-05
5 *1169:Q 0.000863843
6 *520:35 0.00137842
7 *520:18 0.0020854
8 *520:12 0.0019269
9 *520:12 *530:44 0
10 *520:12 *607:12 0
11 *520:35 *1032:A 0
12 *520:35 *521:21 0
13 *667:B2 *667:C1 0
14 *667:B2 *520:18 0
15 *679:A1 *520:12 0
16 *694:B2 *520:12 0
17 *733:D *732:B 0
18 *733:D *520:18 0
19 *929:A *1029:A 0
20 *931:A *520:35 0
21 *932:B *1029:A 0
22 *1029:B *1029:A 0
23 *1033:A *1029:A 0
24 *203:332 *520:35 0
25 *203:348 *1029:A 0
26 *203:368 *520:35 0
27 *226:24 *520:18 0
28 *246:211 *1029:A 0
29 *458:13 *520:35 0
30 *469:14 *520:12 0
31 *469:14 *520:18 0
32 *469:33 *520:18 0
33 *471:15 *732:B 0
34 *506:47 *520:12 0
35 *507:11 *520:12 0
36 *517:46 *520:12 0
37 *517:46 *520:18 0
38 *518:28 *520:35 0
*RES
1 *1169:Q *520:12 24.4789 
2 *520:12 *520:18 22.7946 
3 *520:18 *732:B 14.9161 
4 *520:18 *520:35 15.5507 
5 *520:35 *1029:A 16.4429 
6 *520:35 *1031:A 9.3 
7 *520:12 *667:C1 15.1571 
*END

*D_NET *521 0.00331209
*CONN
*I *672:A1 I *D sky130_fd_sc_hd__a22oi_1
*I *733:A I *D sky130_fd_sc_hd__nand4_1
*I *1034:A I *D sky130_fd_sc_hd__nand2_1
*I *1032:A I *D sky130_fd_sc_hd__nand2_1
*I *1170:Q O *D sky130_fd_sc_hd__dfrtp_1
*CAP
1 *672:A1 0.000445024
2 *733:A 0.000118382
3 *1034:A 0
4 *1032:A 0.000502729
5 *1170:Q 0.000175258
6 *521:22 0.000248041
7 *521:21 0.000859674
8 *521:8 0.000962977
9 *733:A *733:B 0
10 *733:A *1040:A 0
11 *672:B2 *672:A1 0
12 *705:B2 *521:21 0
13 *718:A1 *521:8 0
14 *732:A *672:A1 0
15 *732:A *521:22 0
16 *732:C_N *521:8 0
17 *749:A *672:A1 0
18 *1039:B *733:A 0
19 *1172:D *672:A1 0
20 *1172:D *521:22 0
21 *203:871 *733:A 0
22 *227:20 *521:21 0
23 *471:15 *521:22 0
24 *517:46 *521:8 0
25 *518:28 *1032:A 0
26 *518:28 *521:21 0
27 *518:49 *672:A1 0
28 *520:35 *1032:A 0
29 *520:35 *521:21 0
*RES
1 *1170:Q *521:8 21.1296 
2 *521:8 *1032:A 19.2634 
3 *521:8 *521:21 4.46593 
4 *521:21 *521:22 3.00893 
5 *521:22 *1034:A 13.8 
6 *521:22 *733:A 16.5857 
7 *521:21 *672:A1 23.7018 
*END

*D_NET *522 0.00563123
*CONN
*I *677:A I *D sky130_fd_sc_hd__nand2_1
*I *1037:A I *D sky130_fd_sc_hd__nand2_1
*I *1035:A I *D sky130_fd_sc_hd__nand2_1
*I *731:A I *D sky130_fd_sc_hd__nor2_1
*I *1171:Q O *D sky130_fd_sc_hd__dfrtp_1
*CAP
1 *677:A 0.00148605
2 *1037:A 0.000314015
3 *1035:A 0
4 *731:A 0.000143074
5 *1171:Q 7.90461e-05
6 *522:26 0.000339684
7 *522:14 0.000936508
8 *522:8 0.00233286
9 *731:A *730:A 0
10 *522:14 *730:A 0
11 *522:14 *523:11 0
12 *672:B1 *522:14 0
13 *673:C1 *677:A 0
14 *683:A *677:A 0
15 *693:C2 *677:A 0
16 *713:A1 *677:A 0
17 *713:B1 *677:A 0
18 *998:B *1037:A 0
19 *999:B *522:14 0
20 *1000:A2 *522:14 0
21 *1035:B *1037:A 0
22 *1036:A2 *731:A 0
23 *1036:A2 *1037:A 0
24 *1036:A2 *522:14 0
25 *1037:B *1037:A 0
26 *1039:A *1037:A 0
27 *1160:D *522:8 0
28 *1175:RESET_B *677:A 0
29 *158:20 *522:14 0
30 *203:860 *1037:A 0
31 *203:860 *522:26 0
32 *204:237 *1037:A 0
33 *204:237 *522:26 0
34 *204:248 *731:A 0
35 *218:10 *522:8 0
36 *241:8 *677:A 0
37 *455:625 *677:A 0
38 *455:627 *677:A 0
39 *484:11 *677:A 0
40 *489:9 *677:A 0
41 *509:11 *522:14 0
*RES
1 *1171:Q *522:8 19.0046 
2 *522:8 *522:14 16.8295 
3 *522:14 *731:A 16.9964 
4 *522:14 *522:26 5.03571 
5 *522:26 *1035:A 9.3 
6 *522:26 *1037:A 16.0679 
7 *522:8 *677:A 34.1327 
*END

*D_NET *523 0.00450205
*CONN
*I *688:A1 I *D sky130_fd_sc_hd__a222oi_1
*I *1038:A I *D sky130_fd_sc_hd__nand2_1
*I *733:B I *D sky130_fd_sc_hd__nand4_1
*I *1040:A I *D sky130_fd_sc_hd__nand2_1
*I *1172:Q O *D sky130_fd_sc_hd__dfrtp_1
*CAP
1 *688:A1 0.000656618
2 *1038:A 0
3 *733:B 0.000118118
4 *1040:A 0.000458393
5 *1172:Q 8.4707e-05
6 *523:15 0.00060218
7 *523:11 0.000933189
8 *523:7 0.00164885
9 *688:A1 *1173:CLK 0
10 *523:11 *1171:CLK 0
11 *523:11 *1173:CLK 0
12 *688:B1 *688:A1 0
13 *690:C *688:A1 0
14 *705:B2 *523:11 0
15 *711:A1 *688:A1 0
16 *711:A1 *523:11 0
17 *711:B2 *688:A1 0
18 *712:C1 *688:A1 0
19 *733:A *733:B 0
20 *733:A *1040:A 0
21 *733:C *733:B 0
22 *733:C *523:11 0
23 *733:C *523:15 0
24 *1000:A2 *523:11 0
25 *1036:A2 *523:11 0
26 *1039:B *733:B 0
27 *1040:B *1040:A 0
28 *1042:A1 *733:B 0
29 *1042:A1 *1040:A 0
30 *1042:A1 *523:11 0
31 *1042:A2 *1040:A 0
32 *1159:D *523:11 0
33 *1171:D *523:11 0
34 *134:74 *688:A1 0
35 *147:79 *688:A1 0
36 *149:70 *688:A1 0
37 *203:560 *688:A1 0
38 *203:578 *688:A1 0
39 *204:248 *523:11 0
40 *204:262 *523:11 0
41 *204:262 *523:15 0
42 *455:680 *688:A1 0
43 *509:11 *523:11 0
44 *522:14 *523:11 0
*RES
1 *1172:Q *523:7 15.5679 
2 *523:7 *523:11 24.8214 
3 *523:11 *523:15 5.03571 
4 *523:15 *1040:A 24.0143 
5 *523:15 *733:B 16.425 
6 *523:11 *1038:A 9.3 
7 *523:7 *688:A1 28.5366 
*END

*D_NET *524 0.00496962
*CONN
*I *693:B2 I *D sky130_fd_sc_hd__a222oi_1
*I *1043:A I *D sky130_fd_sc_hd__nand2_1
*I *731:B I *D sky130_fd_sc_hd__nor2_1
*I *1041:A I *D sky130_fd_sc_hd__nand2_1
*I *1173:Q O *D sky130_fd_sc_hd__dfrtp_1
*CAP
1 *693:B2 0.000390253
2 *1043:A 0.00031467
3 *731:B 0.000171294
4 *1041:A 0.000246183
5 *1173:Q 0
6 *524:13 0.000836734
7 *524:10 0.00167708
8 *524:4 0.00133341
9 *693:B2 *693:A1 0
10 *693:B2 *1175:CLK 0
11 *731:B *730:A 0
12 *1041:A *730:A 0
13 *1041:A *730:B 0
14 *693:C1 *693:B2 0
15 *693:C2 *693:B2 0
16 *693:C2 *524:10 0
17 *733:C *731:B 0
18 *734:C *524:13 0
19 *996:A *1043:A 0
20 *996:A *524:10 0
21 *996:A *524:13 0
22 *1041:B *731:B 0
23 *1041:B *1041:A 0
24 *1158:D *524:10 0
25 *97:10 *1041:A 0
26 *99:14 *1043:A 0
27 *203:578 *524:10 0
28 *203:596 *1043:A 0
29 *203:596 *524:13 0
30 *203:602 *1043:A 0
31 *203:630 *1043:A 0
32 *204:262 *731:B 0
33 *484:26 *524:10 0
34 *508:16 *524:10 0
*RES
1 *1173:Q *524:4 9.3 
2 *524:4 *524:10 30.3036 
3 *524:10 *524:13 13.25 
4 *524:13 *1041:A 19.3893 
5 *524:13 *731:B 17.5321 
6 *524:10 *1043:A 25.0321 
7 *524:4 *693:B2 27.1571 
*END

*D_NET *525 0.0057935
*CONN
*I *1044:A I *D sky130_fd_sc_hd__nand2_1
*I *1046:A I *D sky130_fd_sc_hd__nand2_1
*I *705:A1 I *D sky130_fd_sc_hd__a22oi_1
*I *730:A I *D sky130_fd_sc_hd__nand2_1
*I *1174:Q O *D sky130_fd_sc_hd__dfrtp_1
*CAP
1 *1044:A 0
2 *1046:A 0.000200077
3 *705:A1 0.000177563
4 *730:A 0.000933451
5 *1174:Q 0.000219468
6 *525:38 0.000913851
7 *525:7 0.00176343
8 *525:5 0.00158566
9 *1046:A *527:22 0
10 *525:7 *1174:CLK 0
11 *525:38 *527:22 0
12 *672:A2 *705:A1 0
13 *672:B1 *730:A 0
14 *705:A2 *705:A1 0
15 *731:A *730:A 0
16 *731:B *730:A 0
17 *734:B *730:A 0
18 *763:B *525:38 0
19 *824:A *525:38 0
20 *999:B *730:A 0
21 *1004:A *525:38 0
22 *1041:A *730:A 0
23 *1045:A *1046:A 0
24 *1047:B *1046:A 0
25 *1160:D *705:A1 0
26 *1174:RESET_B *525:5 0
27 *30:11 *525:38 0
28 *97:10 *730:A 0
29 *203:630 *1046:A 0
30 *203:638 *1046:A 0
31 *486:9 *525:5 0
32 *510:8 *525:38 0
33 *511:17 *525:38 0
34 *522:14 *730:A 0
*RES
1 *1174:Q *525:5 13.9429 
2 *525:5 *525:7 13.6786 
3 *525:7 *730:A 39.1571 
4 *525:7 *705:A1 22.1393 
5 *525:5 *525:38 20.7679 
6 *525:38 *1046:A 18.1036 
7 *525:38 *1044:A 13.8 
*END

*D_NET *526 0.00757791
*CONN
*I *678:A1 I *D sky130_fd_sc_hd__a222oi_1
*I *748:A I *D sky130_fd_sc_hd__nor4_1
*I *965:A I *D sky130_fd_sc_hd__nand2_1
*I *963:A I *D sky130_fd_sc_hd__nand2_1
*I *1147:Q O *D sky130_fd_sc_hd__dfrtp_1
*CAP
1 *678:A1 0.000758833
2 *748:A 0.000690734
3 *965:A 0.000111058
4 *963:A 0.000485845
5 *1147:Q 0
6 *526:15 0.000737654
7 *526:13 0.00243322
8 *526:4 0.00236057
9 *678:A1 *678:C2 0
10 *748:A *746:B 0
11 *748:A *529:14 0
12 *963:A *908:A 0
13 *965:A *529:14 0
14 *526:13 *1147:CLK 0
15 *678:B1 *678:A1 0
16 *678:B2 *678:A1 0
17 *680:A *678:A1 0
18 *704:C2 *678:A1 0
19 *748:C *748:A 0
20 *759:A *748:A 0
21 *919:B *748:A 0
22 *960:B *963:A 0
23 *964:A2 *963:A 0
24 *964:B1 *963:A 0
25 *987:A *748:A 0
26 *988:A2 *748:A 0
27 *988:B1 *748:A 0
28 *1021:A *526:13 0
29 *1021:B *526:13 0
30 *1130:RESET_B *678:A1 0
31 *1147:D *963:A 0
32 *1147:RESET_B *678:A1 0
33 *1147:RESET_B *526:13 0
34 *1155:D *748:A 0
35 *1166:D *526:13 0
36 *55:20 *748:A 0
37 *148:21 *678:A1 0
38 *203:221 *965:A 0
39 *204:554 *526:13 0
40 *204:558 *526:13 0
41 *455:103 *526:13 0
42 *455:113 *526:13 0
43 *455:120 *526:13 0
44 *463:10 *678:A1 0
45 *504:37 *963:A 0
*RES
1 *1147:Q *526:4 9.3 
2 *526:4 *526:13 33.6786 
3 *526:13 *526:15 3 
4 *526:15 *963:A 28.6214 
5 *526:15 *965:A 20.8536 
6 *526:13 *748:A 33.9429 
7 *526:4 *678:A1 25.3446 
*END

*D_NET *527 0.0068906
*CONN
*I *1049:A I *D sky130_fd_sc_hd__nand2_1
*I *734:A I *D sky130_fd_sc_hd__or3_1
*I *1047:A I *D sky130_fd_sc_hd__nand2_1
*I *713:C1 I *D sky130_fd_sc_hd__a222oi_1
*I *1175:Q O *D sky130_fd_sc_hd__dfrtp_1
*CAP
1 *1049:A 0.000738147
2 *734:A 0.00075428
3 *1047:A 0
4 *713:C1 0.00034787
5 *1175:Q 4.23535e-05
6 *527:26 0.00102236
7 *527:22 0.00230079
8 *527:5 0.00168479
9 *734:A *730:B 0
10 *713:B2 *527:22 0
11 *717:B2 *713:C1 0
12 *763:B *527:22 0
13 *768:A *734:A 0
14 *838:A1 *1049:A 0
15 *838:A2 *1049:A 0
16 *841:A1 *527:26 0
17 *847:A1 *1049:A 0
18 *1046:A *527:22 0
19 *1048:A2 *527:22 0
20 *1048:A2 *527:26 0
21 *1048:B1 *527:26 0
22 *1102:D *527:22 0
23 *1175:RESET_B *713:C1 0
24 *1175:RESET_B *527:5 0
25 *1175:RESET_B *527:22 0
26 *29:8 *1049:A 0
27 *30:11 *527:22 0
28 *97:10 *734:A 0
29 *99:14 *713:C1 0
30 *99:14 *734:A 0
31 *134:47 *713:C1 0
32 *203:678 *1049:A 0
33 *246:435 *734:A 0
34 *489:32 *527:22 0
35 *489:43 *527:22 0
36 *491:39 *1049:A 0
37 *525:38 *527:22 0
*RES
1 *1175:Q *527:5 10.2464 
2 *527:5 *713:C1 25.8179 
3 *527:5 *527:22 38.2679 
4 *527:22 *527:26 10.1786 
5 *527:26 *1047:A 13.8 
6 *527:26 *734:A 25.3481 
7 *527:22 *1049:A 33.925 
*END

*D_NET *528 0.0174566
*CONN
*I *1052:A I *D sky130_fd_sc_hd__nand2_1
*I *716:A I *D sky130_fd_sc_hd__nand2_1
*I *1050:A I *D sky130_fd_sc_hd__nand2_1
*I *730:B I *D sky130_fd_sc_hd__nand2_1
*I *1176:Q O *D sky130_fd_sc_hd__dfrtp_1
*CAP
1 *1052:A 0.00113473
2 *716:A 0.00257129
3 *1050:A 0.000135243
4 *730:B 0.00205479
5 *1176:Q 0.000242142
6 *528:37 0.00552103
7 *528:11 0.0029651
8 *528:7 0.00283221
9 *716:A *531:19 0
10 *716:A *547:47 0
11 *716:A *565:17 0
12 *528:7 *1176:CLK 0
13 *706:A1 *716:A 0
14 *709:B2 *716:A 0
15 *721:C2 *716:A 0
16 *734:A *730:B 0
17 *769:B2 *1052:A 0
18 *797:A *528:37 0
19 *806:A *528:11 0
20 *819:B *528:11 0
21 *845:A *730:B 0
22 *846:A *1050:A 0
23 *850:A1 *528:11 0
24 *995:A *730:B 0
25 *1041:A *730:B 0
26 *1084:D *1052:A 0
27 *1099:D *528:11 0
28 *1100:D *528:11 0
29 *1176:D *1050:A 0
30 *33:11 *528:11 0
31 *203:80 *716:A 0
32 *204:156 *1050:A 0
33 *204:200 *730:B 0
34 *246:518 *528:11 0
35 *482:12 *528:7 0
36 *491:39 *730:B 0
37 *493:13 *716:A 0
38 *493:39 *730:B 0
39 *493:39 *528:11 0
40 *501:10 *1052:A 0
41 *502:36 *1052:A 0
*RES
1 *1176:Q *528:7 18.8536 
2 *528:7 *528:11 16.9009 
3 *528:11 *730:B 24.8846 
4 *528:11 *1050:A 20.2189 
5 *528:7 *528:37 14.4711 
6 *528:37 *716:A 23.7256 
7 *528:37 *1052:A 32.152 
*END

*D_NET *529 0.00717904
*CONN
*I *686:A1 I *D sky130_fd_sc_hd__a22o_1
*I *966:A I *D sky130_fd_sc_hd__nand2_1
*I *968:A I *D sky130_fd_sc_hd__nand2_1
*I *746:B I *D sky130_fd_sc_hd__nand2_1
*I *1148:Q O *D sky130_fd_sc_hd__dfrtp_1
*CAP
1 *686:A1 0.00160651
2 *966:A 0.000143745
3 *968:A 0.000298232
4 *746:B 0.000112356
5 *1148:Q 0
6 *529:14 0.000613787
7 *529:12 0.00157243
8 *529:5 0.00283199
9 *686:A1 uo_out[6] 0
10 *686:A1 *1508:A 0
11 *529:12 *1508:A 0
12 *529:12 *607:12 0
13 *529:12 *607:32 0
14 *663:C1 *686:A1 0
15 *686:B2 *686:A1 0
16 *704:A2 *686:A1 0
17 *748:A *746:B 0
18 *748:A *529:14 0
19 *965:A *529:14 0
20 *987:A *968:A 0
21 *987:B *968:A 0
22 *1146:D *529:12 0
23 *1151:RESET_B *686:A1 0
24 *1151:RESET_B *529:12 0
25 *1163:D *686:A1 0
26 *132:93 *686:A1 0
27 *203:82 *686:A1 0
28 *203:90 *686:A1 0
29 *203:221 *968:A 0
30 *204:580 *966:A 0
31 *204:624 *686:A1 0
32 *239:22 *529:12 0
33 *455:208 *529:12 0
34 *515:21 *746:B 0
35 *515:21 *966:A 0
36 *515:21 *529:12 0
37 *515:21 *529:14 0
*RES
1 *1148:Q *529:5 13.8 
2 *529:5 *529:12 14.2758 
3 *529:12 *529:14 4.67857 
4 *529:14 *746:B 16.3536 
5 *529:14 *968:A 29.175 
6 *529:12 *966:A 16.8 
7 *529:5 *686:A1 32.7786 
*END

*D_NET *530 0.0109049
*CONN
*I *971:A I *D sky130_fd_sc_hd__nand2_1
*I *969:A I *D sky130_fd_sc_hd__nand2_1
*I *748:B I *D sky130_fd_sc_hd__nor4_1
*I *693:A1 I *D sky130_fd_sc_hd__a222oi_1
*I *1149:Q O *D sky130_fd_sc_hd__dfrtp_1
*CAP
1 *971:A 0.000465954
2 *969:A 0.000281501
3 *748:B 0.000630367
4 *693:A1 0.00235763
5 *1149:Q 0.000330126
6 *530:54 0.00109095
7 *530:44 0.00201723
8 *530:6 0.00373112
9 *693:A1 *720:C2 0
10 *693:A1 *983:A 0
11 *748:B *608:81 0
12 *748:B *608:92 0
13 *971:A *608:116 0
14 *530:6 *1154:CLK 0
15 *530:6 *535:8 0
16 *530:54 *608:92 0
17 *530:54 *608:106 0
18 *673:C1 *693:A1 0
19 *685:A1 *530:44 0
20 *693:B2 *693:A1 0
21 *706:A1 *693:A1 0
22 *711:B2 *693:A1 0
23 *718:A2 *693:A1 0
24 *718:B2 *693:A1 0
25 *748:C *748:B 0
26 *768:A *693:A1 0
27 *971:B *971:A 0
28 *1019:A *971:A 0
29 *1019:B *971:A 0
30 *1020:A *971:A 0
31 *1021:A *971:A 0
32 *1148:D *971:A 0
33 *1154:RESET_B *530:6 0
34 *55:20 *530:44 0
35 *81:8 *693:A1 0
36 *81:8 *530:6 0
37 *204:554 *971:A 0
38 *226:24 *693:A1 0
39 *464:8 *693:A1 0
40 *464:14 *530:44 0
41 *506:47 *530:44 0
42 *515:9 *969:A 0
43 *517:17 *748:B 0
44 *517:17 *971:A 0
45 *517:17 *530:54 0
46 *520:12 *530:44 0
*RES
1 *1149:Q *530:6 21.3625 
2 *530:6 *693:A1 37.9446 
3 *530:6 *530:44 10.5988 
4 *530:44 *748:B 27.2018 
5 *530:44 *530:54 7.86607 
6 *530:54 *969:A 19.675 
7 *530:54 *971:A 24.3 
*END

*D_NET *531 0.00846674
*CONN
*I *972:A I *D sky130_fd_sc_hd__nand2_1
*I *974:A I *D sky130_fd_sc_hd__nand2_1
*I *702:A1 I *D sky130_fd_sc_hd__a222oi_1
*I *737:A I *D sky130_fd_sc_hd__nand2_1
*I *1150:Q O *D sky130_fd_sc_hd__dfrtp_1
*CAP
1 *972:A 2.0535e-05
2 *974:A 0.000505486
3 *702:A1 0.000323587
4 *737:A 6.83886e-05
5 *1150:Q 0
6 *531:41 0.0014673
7 *531:19 0.00276607
8 *531:5 0.00331537
9 *702:A1 *702:B2 0
10 *702:A1 *533:20 0
11 *737:A *533:20 0
12 *974:A *975:A 0
13 *531:19 *720:C2 0
14 *531:19 *532:35 0
15 *531:19 *542:39 0
16 *531:19 *547:47 0
17 *531:41 *610:9 0
18 *531:41 *610:125 0
19 *669:A2 *702:A1 0
20 *669:A2 *737:A 0
21 *684:A2 *531:19 0
22 *690:D *531:19 0
23 *702:A2 *702:A1 0
24 *702:B1 *702:A1 0
25 *706:A1 *531:19 0
26 *716:A *531:19 0
27 *738:C *737:A 0
28 *971:B *974:A 0
29 *973:A *974:A 0
30 *973:B *974:A 0
31 *976:B1 *974:A 0
32 *1019:A *974:A 0
33 *1148:D *974:A 0
34 *1150:D *531:41 0
35 *52:12 *974:A 0
36 *52:12 *531:41 0
37 *132:21 *702:A1 0
38 *144:17 *702:A1 0
39 *144:34 *702:A1 0
40 *203:102 *974:A 0
41 *204:554 *974:A 0
42 *455:75 *531:19 0
43 *455:75 *531:41 0
44 *463:21 *531:19 0
45 *505:29 *531:19 0
46 *516:18 *531:41 0
47 *516:38 *531:19 0
*RES
1 *1150:Q *531:5 13.8 
2 *531:5 *531:19 16.1559 
3 *531:19 *737:A 15.2911 
4 *531:19 *702:A1 20.8179 
5 *531:5 *531:41 24.6964 
6 *531:41 *974:A 29.0321 
7 *531:41 *972:A 9.72857 
*END

*D_NET *532 0.00872311
*CONN
*I *977:A I *D sky130_fd_sc_hd__nand2_1
*I *738:A I *D sky130_fd_sc_hd__nor3_1
*I *710:A1 I *D sky130_fd_sc_hd__a22o_1
*I *975:A I *D sky130_fd_sc_hd__nand2_1
*I *1151:Q O *D sky130_fd_sc_hd__dfrtp_1
*CAP
1 *977:A 2.27896e-05
2 *738:A 0.000670781
3 *710:A1 2.55622e-05
4 *975:A 0.000984276
5 *1151:Q 7.79139e-05
6 *532:47 0.00177416
7 *532:35 0.00260579
8 *532:10 0.00256183
9 *975:A *539:32 0
10 *975:A *549:12 0
11 *532:10 *1508:A 0
12 *532:35 uo_out[7] 0
13 *532:35 *678:C2 0
14 *532:35 *709:A1 0
15 *532:35 *721:A1 0
16 *532:35 *537:36 0
17 *532:35 *542:39 0
18 *532:35 *547:47 0
19 *532:35 *549:12 0
20 *532:47 *709:A1 0
21 *532:47 *721:A1 0
22 *714:A *532:47 0
23 *721:C2 *532:47 0
24 *738:C *738:A 0
25 *743:B *738:A 0
26 *973:A *975:A 0
27 *974:A *975:A 0
28 *1151:D *975:A 0
29 *1151:RESET_B *532:10 0
30 *132:76 *532:47 0
31 *132:77 *710:A1 0
32 *134:14 *738:A 0
33 *134:30 *738:A 0
34 *139:43 *738:A 0
35 *139:45 *738:A 0
36 *148:14 *710:A1 0
37 *203:80 *738:A 0
38 *203:90 *975:A 0
39 *203:90 *532:35 0
40 *531:19 *532:35 0
*RES
1 *1151:Q *532:10 18.9332 
2 *532:10 *975:A 25.1138 
3 *532:10 *532:35 9.08014 
4 *532:35 *710:A1 17.7904 
5 *532:35 *532:47 7.3486 
6 *532:47 *738:A 28.8089 
7 *532:47 *977:A 14.3804 
*END

*D_NET *533 0.00511514
*CONN
*I *980:A I *D sky130_fd_sc_hd__nand2_1
*I *737:B I *D sky130_fd_sc_hd__nand2_1
*I *717:A1 I *D sky130_fd_sc_hd__a222oi_1
*I *978:A I *D sky130_fd_sc_hd__nand2_1
*I *1152:Q O *D sky130_fd_sc_hd__dfrtp_1
*CAP
1 *980:A 0.000675945
2 *737:B 0
3 *717:A1 0.000453079
4 *978:A 0
5 *1152:Q 0.000129703
6 *533:20 0.0015168
7 *533:18 0.00197479
8 *533:10 0.000364827
9 *533:10 *572:11 0
10 *533:18 *572:11 0
11 *533:20 *652:B 0
12 *533:20 *659:A 0
13 *533:20 *663:B2 0
14 *533:20 *569:11 0
15 *533:20 *569:13 0
16 *533:20 *570:23 0
17 *533:20 *570:49 0
18 *533:20 *572:11 0
19 *533:20 *607:82 0
20 *669:A1 *533:20 0
21 *669:A2 *717:A1 0
22 *674:A2 *717:A1 0
23 *674:B2 *717:A1 0
24 *702:A1 *533:20 0
25 *717:B1 *717:A1 0
26 *717:C2 *717:A1 0
27 *720:B1 *717:A1 0
28 *720:B2 *717:A1 0
29 *737:A *533:20 0
30 *738:C *533:20 0
31 *978:B *533:18 0
32 *982:A2 *980:A 0
33 *132:6 *533:20 0
34 *132:21 *533:20 0
35 *135:20 *533:20 0
36 *137:22 *533:20 0
37 *137:27 *717:A1 0
38 *141:55 *533:20 0
39 *144:17 *533:20 0
40 *146:99 *717:A1 0
*RES
1 *1152:Q *533:10 21.1929 
2 *533:10 *978:A 9.3 
3 *533:10 *533:18 9.64286 
4 *533:18 *533:20 24.1071 
5 *533:20 *717:A1 23.8848 
6 *533:20 *737:B 13.8 
7 *533:18 *980:A 27.9071 
*END

*D_NET *534 0.00739088
*CONN
*I *981:A I *D sky130_fd_sc_hd__nand2_1
*I *738:B I *D sky130_fd_sc_hd__nor3_1
*I *666:B2 I *D sky130_fd_sc_hd__a222oi_1
*I *983:A I *D sky130_fd_sc_hd__nand2_1
*I *1153:Q O *D sky130_fd_sc_hd__dfrtp_1
*CAP
1 *981:A 0
2 *738:B 2.56688e-05
3 *666:B2 1.1551e-05
4 *983:A 0.000844791
5 *1153:Q 0.000482536
6 *534:20 0.00143621
7 *534:16 0.00235656
8 *534:8 0.00223356
9 *534:8 *1153:CLK 0
10 *534:16 *669:B1 0
11 *534:16 *682:B2 0
12 *534:16 *1153:CLK 0
13 *534:16 *544:8 0
14 *534:16 *544:32 0
15 *534:20 *720:C2 0
16 *663:C1 *534:16 0
17 *666:A1 *983:A 0
18 *666:A1 *534:20 0
19 *666:A2 *534:20 0
20 *666:B1 *534:20 0
21 *693:A1 *983:A 0
22 *693:A2 *983:A 0
23 *697:A1 *534:16 0
24 *706:A1 *983:A 0
25 *707:C *983:A 0
26 *712:C1 *983:A 0
27 *718:A2 *983:A 0
28 *720:B2 *534:20 0
29 *720:C1 *534:20 0
30 *738:C *738:B 0
31 *868:B *534:16 0
32 *982:B1 *534:8 0
33 *1085:RESET_B *534:8 0
34 *1115:D *534:16 0
35 *1116:RESET_B *534:16 0
36 *1153:D *534:8 0
37 *1153:RESET_B *534:8 0
38 *132:12 *534:16 0
39 *132:21 *534:16 0
40 *134:34 *983:A 0
41 *134:34 *534:20 0
42 *137:10 *534:16 0
43 *137:22 *534:16 0
44 *137:22 *534:20 0
45 *139:45 *534:20 0
46 *139:49 *534:20 0
47 *142:29 *534:16 0
48 *147:28 *534:20 0
49 *204:41 *534:16 0
50 *246:34 *534:8 0
*RES
1 *1153:Q *534:8 24.0857 
2 *534:8 *534:16 47.0893 
3 *534:16 *534:20 13.1071 
4 *534:20 *983:A 27.4731 
5 *534:20 *666:B2 14.0411 
6 *534:16 *738:B 14.3357 
7 *534:8 *981:A 13.8 
*END

*D_NET *535 0.00785633
*CONN
*I *674:C2 I *D sky130_fd_sc_hd__a222oi_1
*I *735:A I *D sky130_fd_sc_hd__nand2_1
*I *984:A I *D sky130_fd_sc_hd__nand2_1
*I *986:A I *D sky130_fd_sc_hd__nand2_1
*I *1154:Q O *D sky130_fd_sc_hd__dfrtp_1
*CAP
1 *674:C2 0.000845263
2 *735:A 0
3 *984:A 9.90632e-05
4 *986:A 0.00160002
5 *1154:Q 0.000112395
6 *535:31 0.00146427
7 *535:17 0.00137049
8 *535:8 0.00236483
9 *535:8 *1130:CLK 0
10 *673:B2 *535:31 0
11 *674:B1 *674:C2 0
12 *684:A1 *535:31 0
13 *690:A *674:C2 0
14 *694:B2 *984:A 0
15 *695:B *535:17 0
16 *696:B2 *674:C2 0
17 *707:B *674:C2 0
18 *988:A2 *986:A 0
19 *147:25 *674:C2 0
20 *203:560 *674:C2 0
21 *469:14 *984:A 0
22 *469:14 *535:31 0
23 *503:29 *674:C2 0
24 *517:46 *535:31 0
25 *530:6 *535:8 0
*RES
1 *1154:Q *535:8 20.8536 
2 *535:8 *986:A 42.6929 
3 *535:8 *535:17 18.1786 
4 *535:17 *984:A 16.05 
5 *535:17 *535:31 11.5787 
6 *535:31 *735:A 13.8 
7 *535:31 *674:C2 31.7196 
*END

*D_NET *536 0.00689089
*CONN
*I *861:A I *D sky130_fd_sc_hd__nand2_1
*I *863:A I *D sky130_fd_sc_hd__nand2_1
*I *663:A1 I *D sky130_fd_sc_hd__a222oi_1
*I *765:D_N I *D sky130_fd_sc_hd__or4b_1
*I *1113:Q O *D sky130_fd_sc_hd__dfrtp_1
*CAP
1 *861:A 0.000542404
2 *863:A 0.000419396
3 *663:A1 0.000780843
4 *765:D_N 0.000179818
5 *1113:Q 0
6 *536:11 0.00209439
7 *536:8 0.00194238
8 *536:4 0.000931657
9 *663:A1 *670:A1 0
10 *663:A1 *765:B 0
11 *663:A1 *870:A 0
12 *765:D_N *765:B 0
13 *765:D_N *765:C 0
14 *765:D_N *870:A 0
15 *765:D_N *545:21 0
16 *536:8 *1097:CLK 0
17 *536:8 *615:35 0
18 *536:11 *543:11 0
19 *536:11 *543:21 0
20 *664:B2 *663:A1 0
21 *665:B *663:A1 0
22 *670:B1 *663:A1 0
23 *675:A *663:A1 0
24 *683:C *663:A1 0
25 *703:B *663:A1 0
26 *797:A *861:A 0
27 *797:A *536:8 0
28 *812:B *861:A 0
29 *862:B *861:A 0
30 *870:B *663:A1 0
31 *1098:D *861:A 0
32 *1113:D *861:A 0
33 *1114:D *863:A 0
34 *1114:D *536:11 0
35 *141:64 *663:A1 0
36 *204:83 *861:A 0
37 *246:31 *536:11 0
38 *246:58 *536:11 0
39 *246:74 *863:A 0
40 *246:74 *536:11 0
41 *473:8 *536:8 0
42 *492:39 *861:A 0
43 *502:36 *863:A 0
44 *502:36 *536:11 0
*RES
1 *1113:Q *536:4 9.3 
2 *536:4 *536:8 16.6868 
3 *536:8 *536:11 7.49273 
4 *536:11 *765:D_N 17.6661 
5 *536:11 *663:A1 39.4964 
6 *536:8 *863:A 18.9751 
7 *536:4 *861:A 30.2107 
*END

*D_NET *537 0.0102452
*CONN
*I *891:A I *D sky130_fd_sc_hd__nand2_1
*I *893:A I *D sky130_fd_sc_hd__nand2_1
*I *758:B I *D sky130_fd_sc_hd__or4b_1
*I *678:C2 I *D sky130_fd_sc_hd__a222oi_1
*I *1123:Q O *D sky130_fd_sc_hd__dfrtp_1
*CAP
1 *891:A 6.56554e-05
2 *893:A 3.88545e-05
3 *758:B 0.00078745
4 *678:C2 0.000935971
5 *1123:Q 0.000722203
6 *537:38 0.00119093
7 *537:36 0.00263812
8 *537:12 0.00386601
9 *678:C2 uo_out[7] 0
10 *758:B *758:A 0
11 *758:B *758:D_N 0
12 *758:B *878:A 0
13 *758:B *879:A 0
14 *758:B *885:A 0
15 *758:B *899:A 0
16 *758:B *538:20 0
17 *891:A *890:A 0
18 *537:12 uo_out[7] 0
19 *537:12 *663:B2 0
20 *537:12 *687:B2 0
21 *537:12 *709:A1 0
22 *537:36 *542:39 0
23 *537:36 *547:47 0
24 *678:A1 *678:C2 0
25 *687:A1 *537:12 0
26 *880:B *758:B 0
27 *901:B1 *758:B 0
28 *1013:A *537:12 0
29 *1065:A2 *537:36 0
30 *1119:D *537:36 0
31 *1120:D *758:B 0
32 *1120:D *537:38 0
33 *1121:D *758:B 0
34 *1121:D *537:38 0
35 *1123:D *537:38 0
36 *1124:D *537:38 0
37 *1163:RESET_B *537:12 0
38 *203:203 *758:B 0
39 *204:663 *758:B 0
40 *246:348 *893:A 0
41 *505:29 *678:C2 0
42 *516:38 *678:C2 0
43 *532:35 *678:C2 0
44 *532:35 *537:36 0
*RES
1 *1123:Q *537:12 25.0416 
2 *537:12 *678:C2 24.8032 
3 *537:12 *537:36 6.04116 
4 *537:36 *537:38 1.3442 
5 *537:38 *758:B 30.2914 
6 *537:38 *893:A 18.0939 
7 *537:36 *891:A 18.7011 
*END

*D_NET *538 0.00724313
*CONN
*I *687:B2 I *D sky130_fd_sc_hd__a22oi_1
*I *894:A I *D sky130_fd_sc_hd__nand2_1
*I *896:A I *D sky130_fd_sc_hd__nand2_1
*I *758:A I *D sky130_fd_sc_hd__or4b_1
*I *1124:Q O *D sky130_fd_sc_hd__dfrtp_1
*CAP
1 *687:B2 0.00142541
2 *894:A 8.56136e-05
3 *896:A 0.000181821
4 *758:A 0.000125825
5 *1124:Q 6.55964e-05
6 *538:20 0.000661692
7 *538:15 0.00182291
8 *538:8 0.00287426
9 *687:B2 *663:B2 0
10 *687:B2 *550:12 0
11 *687:B2 *567:71 0
12 *758:A *879:A 0
13 *538:15 *1125:CLK 0
14 *538:15 *550:12 0
15 *758:B *758:A 0
16 *758:B *538:20 0
17 *878:B *896:A 0
18 *879:B *896:A 0
19 *880:B *896:A 0
20 *880:B *538:20 0
21 *896:B *896:A 0
22 *898:A *896:A 0
23 *1013:A *687:B2 0
24 *1013:A *538:15 0
25 *1015:A *538:15 0
26 *1119:D *687:B2 0
27 *1125:D *538:15 0
28 *1163:D *687:B2 0
29 *203:136 *896:A 0
30 *203:138 *896:A 0
31 *203:203 *758:A 0
32 *204:458 *758:A 0
33 *204:663 *758:A 0
34 *204:663 *894:A 0
35 *204:663 *538:20 0
36 *455:290 *538:8 0
37 *513:30 *687:B2 0
38 *537:12 *687:B2 0
*RES
1 *1124:Q *538:8 18.7011 
2 *538:8 *538:15 31.1726 
3 *538:15 *538:20 12.375 
4 *538:20 *758:A 16.6571 
5 *538:20 *896:A 17.5321 
6 *538:15 *894:A 20.2464 
7 *538:8 *687:B2 24.4152 
*END

*D_NET *539 0.00968766
*CONN
*I *899:A I *D sky130_fd_sc_hd__nand2_1
*I *897:A I *D sky130_fd_sc_hd__nand2_1
*I *760:D I *D sky130_fd_sc_hd__nand4b_1
*I *696:C2 I *D sky130_fd_sc_hd__a222oi_1
*I *1125:Q O *D sky130_fd_sc_hd__dfrtp_1
*CAP
1 *899:A 6.39939e-05
2 *897:A 0.000138734
3 *760:D 0.000207704
4 *696:C2 0.00224164
5 *1125:Q 0.00054285
6 *539:42 0.000419377
7 *539:32 0.00185662
8 *539:8 0.00421675
9 *696:C2 *607:11 0
10 *760:D *760:B 0
11 *760:D *542:43 0
12 *897:A *758:D_N 0
13 *897:A *549:31 0
14 *899:A *758:D_N 0
15 *539:8 *549:8 0
16 *539:32 *542:43 0
17 *539:32 *549:12 0
18 *539:32 *549:31 0
19 *539:42 *760:B 0
20 *539:42 *549:31 0
21 *663:C1 *696:C2 0
22 *663:C1 *539:32 0
23 *758:B *899:A 0
24 *899:B *897:A 0
25 *901:A2 *539:42 0
26 *901:B1 *539:42 0
27 *959:B *760:D 0
28 *975:A *539:32 0
29 *1012:A1 *696:C2 0
30 *1017:A *539:8 0
31 *1125:RESET_B *539:8 0
32 *1146:D *696:C2 0
33 *1151:RESET_B *696:C2 0
34 *203:90 *539:32 0
35 *203:150 *897:A 0
36 *203:203 *539:42 0
37 *204:529 *539:8 0
38 *204:533 *696:C2 0
39 *204:533 *539:8 0
40 *204:537 *539:32 0
41 *204:624 *539:32 0
42 *246:298 *760:D 0
43 *246:310 *539:42 0
44 *514:33 *539:8 0
*RES
1 *1125:Q *539:8 26.1482 
2 *539:8 *696:C2 31.6112 
3 *539:8 *539:32 11.9837 
4 *539:32 *760:D 18.4518 
5 *539:32 *539:42 4.98214 
6 *539:42 *897:A 17.0411 
7 *539:42 *899:A 15.4518 
*END

*D_NET *540 0.00683643
*CONN
*I *704:C1 I *D sky130_fd_sc_hd__a222oi_1
*I *902:A I *D sky130_fd_sc_hd__nand2_1
*I *758:C I *D sky130_fd_sc_hd__or4b_1
*I *900:A I *D sky130_fd_sc_hd__nand2_1
*I *1126:Q O *D sky130_fd_sc_hd__dfrtp_1
*CAP
1 *704:C1 0.000927086
2 *902:A 0.000109681
3 *758:C 0
4 *900:A 0.000223318
5 *1126:Q 0
6 *540:17 0.000482145
7 *540:14 0.00226781
8 *540:4 0.00282639
9 *704:C1 *1117:CLK 0
10 *704:C1 *546:10 0
11 *900:A *758:D_N 0
12 *902:A *541:28 0
13 *540:14 *721:A1 0
14 *540:14 *548:19 0
15 *540:14 *549:12 0
16 *540:14 *549:31 0
17 *540:14 *610:137 0
18 *671:A1 *704:C1 0
19 *704:C2 *704:C1 0
20 *899:B *900:A 0
21 *901:B1 *900:A 0
22 *984:B *704:C1 0
23 *1010:B *704:C1 0
24 *1118:D *540:14 0
25 *1126:RESET_B *540:14 0
26 *54:24 *704:C1 0
27 *204:450 *900:A 0
28 *204:450 *540:17 0
29 *246:328 *540:14 0
30 *246:335 *902:A 0
31 *455:37 *704:C1 0
32 *455:37 *540:14 0
33 *455:48 *540:14 0
34 *515:8 *704:C1 0
35 *517:32 *704:C1 0
*RES
1 *1126:Q *540:4 9.3 
2 *540:4 *540:14 24.0953 
3 *540:14 *540:17 9.96429 
4 *540:17 *900:A 13.9607 
5 *540:17 *758:C 9.3 
6 *540:14 *902:A 16.3536 
7 *540:4 *704:C1 38.8 
*END

*D_NET *541 0.00687764
*CONN
*I *903:A I *D sky130_fd_sc_hd__nand2_1
*I *760:B I *D sky130_fd_sc_hd__nand4b_1
*I *905:A I *D sky130_fd_sc_hd__nand2_1
*I *710:B2 I *D sky130_fd_sc_hd__a22o_1
*I *1127:Q O *D sky130_fd_sc_hd__dfrtp_1
*CAP
1 *903:A 0
2 *760:B 0.000434575
3 *905:A 2.0535e-05
4 *710:B2 0.000282505
5 *1127:Q 6.28436e-05
6 *541:28 0.000880852
7 *541:21 0.00263836
8 *541:6 0.00255797
9 *710:B2 *671:B2 0
10 *760:B *542:43 0
11 *541:6 *671:B2 0
12 *541:21 *709:A1 0
13 *541:21 *721:A1 0
14 *541:21 *547:12 0
15 *541:21 *547:47 0
16 *541:21 *548:19 0
17 *541:28 *757:A_N 0
18 *541:28 *757:D 0
19 *663:C1 *760:B 0
20 *710:B1 *710:B2 0
21 *760:D *760:B 0
22 *902:A *541:28 0
23 *906:B *541:28 0
24 *907:A1 *760:B 0
25 *907:A2 *760:B 0
26 *907:B1 *760:B 0
27 *907:B1 *541:28 0
28 *1013:A *541:21 0
29 *1125:D *541:21 0
30 *52:8 *760:B 0
31 *148:12 *710:B2 0
32 *148:12 *541:6 0
33 *148:14 *710:B2 0
34 *203:203 *760:B 0
35 *203:207 *760:B 0
36 *204:458 *541:28 0
37 *204:663 *541:21 0
38 *539:42 *760:B 0
*RES
1 *1127:Q *541:6 15.2911 
2 *541:6 *710:B2 19.9161 
3 *541:6 *541:21 15.3026 
4 *541:21 *541:28 14.0179 
5 *541:28 *905:A 9.72857 
6 *541:28 *760:B 27.8357 
7 *541:21 *903:A 13.8 
*END

*D_NET *542 0.0108067
*CONN
*I *906:A I *D sky130_fd_sc_hd__nand2_1
*I *760:C I *D sky130_fd_sc_hd__nand4b_1
*I *908:A I *D sky130_fd_sc_hd__nand2_1
*I *720:C2 I *D sky130_fd_sc_hd__a222oi_1
*I *1128:Q O *D sky130_fd_sc_hd__dfrtp_1
*CAP
1 *906:A 0.000175632
2 *760:C 0
3 *908:A 0.00033978
4 *720:C2 0.00206805
5 *1128:Q 0.000254009
6 *542:43 0.0006644
7 *542:39 0.00274152
8 *542:11 0.00456333
9 *663:C1 *542:43 0
10 *684:A2 *720:C2 0
11 *693:A1 *720:C2 0
12 *706:A1 *720:C2 0
13 *760:A_N *908:A 0
14 *760:B *542:43 0
15 *760:D *542:43 0
16 *761:A *906:A 0
17 *761:B *906:A 0
18 *963:A *908:A 0
19 *989:A *908:A 0
20 *1119:D *542:39 0
21 *1147:D *908:A 0
22 *139:45 *720:C2 0
23 *226:24 *720:C2 0
24 *239:22 *906:A 0
25 *239:22 *542:43 0
26 *246:298 *542:43 0
27 *463:21 *720:C2 0
28 *463:21 *542:39 0
29 *504:37 *908:A 0
30 *504:37 *542:43 0
31 *505:29 *542:11 0
32 *512:14 *720:C2 0
33 *516:38 *542:11 0
34 *531:19 *720:C2 0
35 *531:19 *542:39 0
36 *532:35 *542:39 0
37 *534:20 *720:C2 0
38 *537:36 *542:39 0
39 *539:32 *542:43 0
*RES
1 *1128:Q *542:11 21.7726 
2 *542:11 *720:C2 25.0461 
3 *542:11 *542:39 5.73469 
4 *542:39 *542:43 5.8489 
5 *542:43 *908:A 21.5143 
6 *542:43 *760:C 13.8 
7 *542:39 *906:A 20.9091 
*END

*D_NET *543 0.00599851
*CONN
*I *864:A I *D sky130_fd_sc_hd__nand2_1
*I *866:A I *D sky130_fd_sc_hd__nand2_1
*I *764:D I *D sky130_fd_sc_hd__or4_1
*I *670:A1 I *D sky130_fd_sc_hd__a22oi_1
*I *1114:Q O *D sky130_fd_sc_hd__dfrtp_1
*CAP
1 *864:A 0.000570868
2 *866:A 0.000255386
3 *764:D 0.000502871
4 *670:A1 0.000244598
5 *1114:Q 0.000118007
6 *543:21 0.00145153
7 *543:11 0.00156291
8 *543:8 0.00129234
9 *670:A1 *545:25 0
10 *866:A *615:13 0
11 *543:8 *1097:CLK 0
12 *543:21 *545:25 0
13 *663:A1 *670:A1 0
14 *689:A2 *764:D 0
15 *689:B1 *670:A1 0
16 *689:B1 *764:D 0
17 *692:A *764:D 0
18 *767:A *670:A1 0
19 *767:D *764:D 0
20 *796:B1 *543:8 0
21 *864:B *864:A 0
22 *865:A1 *864:A 0
23 *871:A *866:A 0
24 *1091:D *864:A 0
25 *1114:D *543:11 0
26 *1116:RESET_B *866:A 0
27 *137:42 *764:D 0
28 *137:44 *764:D 0
29 *141:79 *670:A1 0
30 *203:32 *866:A 0
31 *204:63 *866:A 0
32 *239:22 *670:A1 0
33 *239:22 *543:21 0
34 *241:8 *764:D 0
35 *245:15 *764:D 0
36 *246:31 *543:21 0
37 *246:80 *864:A 0
38 *479:11 *543:11 0
39 *479:11 *543:21 0
40 *536:11 *543:11 0
41 *536:11 *543:21 0
*RES
1 *1114:Q *543:8 16.4339 
2 *543:8 *543:11 5.619 
3 *543:11 *543:21 2.64453 
4 *543:21 *670:A1 21.5708 
5 *543:21 *764:D 28.4689 
6 *543:11 *866:A 22.9511 
7 *543:8 *864:A 26.1839 
*END

*D_NET *544 0.00357065
*CONN
*I *867:A I *D sky130_fd_sc_hd__nand2_1
*I *682:B2 I *D sky130_fd_sc_hd__a222oi_1
*I *869:A I *D sky130_fd_sc_hd__nand2_1
*I *765:B I *D sky130_fd_sc_hd__or4b_1
*I *1115:Q O *D sky130_fd_sc_hd__dfrtp_1
*CAP
1 *867:A 2.0535e-05
2 *682:B2 0.000748255
3 *869:A 0.000102247
4 *765:B 0.000333466
5 *1115:Q 0.000429807
6 *544:32 0.000791464
7 *544:12 0.000564055
8 *544:8 0.000580822
9 *765:B *545:25 0
10 *869:A *545:10 0
11 *544:8 *615:50 0
12 *663:A1 *765:B 0
13 *664:B1 *682:B2 0
14 *682:A2 *682:B2 0
15 *765:D_N *765:B 0
16 *766:D *765:B 0
17 *868:B *544:32 0
18 *1115:RESET_B *544:8 0
19 *1116:RESET_B *765:B 0
20 *1116:RESET_B *869:A 0
21 *1116:RESET_B *544:8 0
22 *1116:RESET_B *544:12 0
23 *139:8 *682:B2 0
24 *142:30 *682:B2 0
25 *203:25 *682:B2 0
26 *204:41 *544:12 0
27 *204:45 *765:B 0
28 *246:34 *765:B 0
29 *455:418 *544:8 0
30 *502:16 *765:B 0
31 *502:16 *544:12 0
32 *534:16 *682:B2 0
33 *534:16 *544:8 0
34 *534:16 *544:32 0
*RES
1 *1115:Q *544:8 22.9607 
2 *544:8 *544:12 7.35714 
3 *544:12 *765:B 25.6571 
4 *544:12 *869:A 11.4964 
5 *544:8 *544:32 5.03571 
6 *544:32 *682:B2 33.9518 
7 *544:32 *867:A 9.72857 
*END

*D_NET *545 0.00636822
*CONN
*I *765:A I *D sky130_fd_sc_hd__or4b_1
*I *870:A I *D sky130_fd_sc_hd__nand2_1
*I *689:B2 I *D sky130_fd_sc_hd__a222oi_1
*I *872:A I *D sky130_fd_sc_hd__nand2_1
*I *1116:Q O *D sky130_fd_sc_hd__dfrtp_1
*CAP
1 *765:A 0
2 *870:A 8.29394e-05
3 *689:B2 7.36275e-05
4 *872:A 0.00209308
5 *1116:Q 0.000204879
6 *545:25 0.00266613
7 *545:21 0.000812524
8 *545:10 0.000435043
9 *872:A uo_out[2] 0
10 *872:A *607:11 0
11 *872:A *607:54 0
12 *545:21 *765:C 0
13 *663:A1 *870:A 0
14 *664:B2 *870:A 0
15 *670:A1 *545:25 0
16 *689:A1 *689:B2 0
17 *689:B1 *689:B2 0
18 *689:C2 *689:B2 0
19 *690:D *872:A 0
20 *697:A1 *872:A 0
21 *697:A1 *545:25 0
22 *702:C1 *689:B2 0
23 *736:A *872:A 0
24 *754:A *545:25 0
25 *765:B *545:25 0
26 *765:D_N *870:A 0
27 *765:D_N *545:21 0
28 *766:D *545:21 0
29 *766:D *545:25 0
30 *767:B *545:10 0
31 *767:B *545:21 0
32 *869:A *545:10 0
33 *874:A *872:A 0
34 *984:B *872:A 0
35 *1007:B *545:10 0
36 *1010:B *872:A 0
37 *144:34 *689:B2 0
38 *144:38 *689:B2 0
39 *148:21 *872:A 0
40 *203:32 *545:10 0
41 *239:22 *872:A 0
42 *239:22 *545:25 0
43 *479:11 *545:25 0
44 *502:16 *545:10 0
45 *505:29 *872:A 0
46 *516:38 *872:A 0
47 *543:21 *545:25 0
*RES
1 *1116:Q *545:10 22.9071 
2 *545:10 *545:21 9.36607 
3 *545:21 *545:25 6.99655 
4 *545:25 *872:A 32.6789 
5 *545:25 *689:B2 18.7859 
6 *545:21 *870:A 15.7464 
7 *545:10 *765:A 9.3 
*END

*D_NET *546 0.00831492
*CONN
*I *873:A I *D sky130_fd_sc_hd__nand2_1
*I *697:C2 I *D sky130_fd_sc_hd__a222oi_1
*I *875:A I *D sky130_fd_sc_hd__nand2_1
*I *757:D I *D sky130_fd_sc_hd__nand4b_1
*I *1117:Q O *D sky130_fd_sc_hd__dfrtp_1
*CAP
1 *873:A 8.25679e-05
2 *697:C2 0.00129527
3 *875:A 0.000155261
4 *757:D 0.000334143
5 *1117:Q 8.45797e-05
6 *546:46 0.00155795
7 *546:26 0.00251493
8 *546:10 0.00229021
9 *697:C2 *567:132 0
10 *757:D *549:12 0
11 *875:A *757:C 0
12 *546:10 *671:B2 0
13 *546:26 *757:C 0
14 *678:A2 *697:C2 0
15 *697:C1 *697:C2 0
16 *704:A2 *697:C2 0
17 *704:C1 *546:10 0
18 *872:B *546:10 0
19 *874:A *546:26 0
20 *874:A *546:46 0
21 *874:B *546:26 0
22 *874:B *546:46 0
23 *1010:A *697:C2 0
24 *1010:B *697:C2 0
25 *1012:A2 *697:C2 0
26 *1117:D *546:26 0
27 *1151:D *546:26 0
28 *1151:RESET_B *546:26 0
29 *50:9 *757:D 0
30 *203:98 *875:A 0
31 *203:98 *546:26 0
32 *203:122 *875:A 0
33 *203:129 *875:A 0
34 *541:28 *757:D 0
*RES
1 *1117:Q *546:10 20.175 
2 *546:10 *546:26 47.1429 
3 *546:26 *757:D 29.9071 
4 *546:26 *875:A 17.2643 
5 *546:10 *546:46 3.82143 
6 *546:46 *697:C2 45.8625 
7 *546:46 *873:A 11.0857 
*END

*D_NET *547 0.0111686
*CONN
*I *765:C I *D sky130_fd_sc_hd__or4b_1
*I *702:B2 I *D sky130_fd_sc_hd__a222oi_1
*I *878:A I *D sky130_fd_sc_hd__nand2_1
*I *876:A I *D sky130_fd_sc_hd__nand2_1
*I *1118:Q O *D sky130_fd_sc_hd__dfrtp_1
*CAP
1 *765:C 0.000662041
2 *702:B2 4.87707e-05
3 *878:A 0.000687657
4 *876:A 7.23606e-05
5 *1118:Q 2.55228e-05
6 *547:47 0.00335017
7 *547:12 0.00220858
8 *547:8 0.00411345
9 *876:A *757:C 0
10 *878:A *758:D_N 0
11 *547:8 *611:101 0
12 *547:12 *757:C 0
13 *547:12 *548:19 0
14 *547:47 uio_out[4] 0
15 *547:47 *548:19 0
16 *547:47 *607:82 0
17 *670:B2 *547:47 0
18 *702:A1 *702:B2 0
19 *702:A2 *765:C 0
20 *702:B1 *702:B2 0
21 *702:B1 *765:C 0
22 *709:B2 *547:47 0
23 *716:A *547:47 0
24 *758:B *878:A 0
25 *765:D_N *765:C 0
26 *767:A *765:C 0
27 *767:B *765:C 0
28 *1065:A2 *547:47 0
29 *203:132 *878:A 0
30 *203:134 *878:A 0
31 *203:136 *878:A 0
32 *204:481 *878:A 0
33 *204:508 *878:A 0
34 *204:513 *876:A 0
35 *245:15 *765:C 0
36 *246:31 *547:47 0
37 *455:28 *547:8 0
38 *531:19 *547:47 0
39 *532:35 *547:47 0
40 *537:36 *547:47 0
41 *541:21 *547:12 0
42 *541:21 *547:47 0
43 *545:21 *765:C 0
*RES
1 *1118:Q *547:8 17.7904 
2 *547:8 *547:12 9.15409 
3 *547:12 *876:A 15.4429 
4 *547:12 *878:A 37.2107 
5 *547:8 *547:47 18.8731 
6 *547:47 *702:B2 10.5188 
7 *547:47 *765:C 23.3179 
*END

*D_NET *548 0.00969827
*CONN
*I *709:A1 I *D sky130_fd_sc_hd__a22oi_1
*I *757:A_N I *D sky130_fd_sc_hd__nand4b_1
*I *879:A I *D sky130_fd_sc_hd__nand2_1
*I *881:A I *D sky130_fd_sc_hd__nand2_1
*I *1119:Q O *D sky130_fd_sc_hd__dfrtp_1
*CAP
1 *709:A1 0.00114033
2 *757:A_N 0.000434447
3 *879:A 3.89331e-05
4 *881:A 0.000605922
5 *1119:Q 8.95855e-05
6 *548:21 0.000770739
7 *548:19 0.00297436
8 *548:6 0.00364395
9 *881:A *758:D_N 0
10 *881:A *885:A 0
11 *881:A *549:31 0
12 *548:6 *671:B2 0
13 *548:19 *671:B2 0
14 *548:19 *721:A1 0
15 *548:19 *549:31 0
16 *548:21 *549:31 0
17 *661:B *709:A1 0
18 *687:A1 *709:A1 0
19 *709:B2 *709:A1 0
20 *758:A *879:A 0
21 *758:B *879:A 0
22 *883:A *881:A 0
23 *883:B *881:A 0
24 *898:A *881:A 0
25 *898:B *881:A 0
26 *906:B *757:A_N 0
27 *1013:A *709:A1 0
28 *1118:D *548:19 0
29 *1119:D *881:A 0
30 *1125:D *881:A 0
31 *1125:D *548:19 0
32 *1125:D *548:21 0
33 *1504:A *709:A1 0
34 *132:76 *709:A1 0
35 *145:8 *709:A1 0
36 *203:150 *881:A 0
37 *203:154 *881:A 0
38 *204:458 *757:A_N 0
39 *455:24 *548:6 0
40 *455:26 *548:19 0
41 *455:28 *548:19 0
42 *532:35 *709:A1 0
43 *532:47 *709:A1 0
44 *537:12 *709:A1 0
45 *540:14 *548:19 0
46 *541:21 *709:A1 0
47 *541:21 *548:19 0
48 *541:28 *757:A_N 0
49 *547:12 *548:19 0
50 *547:47 *548:19 0
*RES
1 *1119:Q *548:6 15.8982 
2 *548:6 *548:19 14.8709 
3 *548:19 *548:21 0.4794 
4 *548:21 *881:A 26.0602 
5 *548:21 *879:A 18.0939 
6 *548:19 *757:A_N 26.6832 
7 *548:6 *709:A1 28.2773 
*END

*D_NET *549 0.00943602
*CONN
*I *721:A1 I *D sky130_fd_sc_hd__a222oi_1
*I *884:A I *D sky130_fd_sc_hd__nand2_1
*I *882:A I *D sky130_fd_sc_hd__nand2_1
*I *757:B I *D sky130_fd_sc_hd__nand4b_1
*I *1120:Q O *D sky130_fd_sc_hd__dfrtp_1
*CAP
1 *721:A1 0.00172652
2 *884:A 0.000122698
3 *882:A 0
4 *757:B 0
5 *1120:Q 0.000306215
6 *549:31 0.00146232
7 *549:12 0.00256257
8 *549:8 0.00325569
9 *884:A *885:A 0
10 *549:8 *1165:CLK 0
11 *549:8 *1508:A 0
12 *549:31 *885:A 0
13 *690:B *721:A1 0
14 *721:C2 *721:A1 0
15 *757:D *549:12 0
16 *881:A *549:31 0
17 *882:B *884:A 0
18 *882:B *549:31 0
19 *884:B *884:A 0
20 *884:B *549:31 0
21 *885:B *884:A 0
22 *893:B *549:31 0
23 *897:A *549:31 0
24 *897:B *549:31 0
25 *975:A *549:12 0
26 *976:A1 *549:12 0
27 *141:24 *721:A1 0
28 *203:82 *721:A1 0
29 *203:90 *549:12 0
30 *203:150 *549:31 0
31 *203:154 *549:31 0
32 *204:439 *549:31 0
33 *246:310 *549:31 0
34 *514:33 *721:A1 0
35 *514:33 *549:8 0
36 *514:33 *549:12 0
37 *532:35 *721:A1 0
38 *532:35 *549:12 0
39 *532:47 *721:A1 0
40 *539:8 *549:8 0
41 *539:32 *549:12 0
42 *539:32 *549:31 0
43 *539:42 *549:31 0
44 *540:14 *721:A1 0
45 *540:14 *549:12 0
46 *540:14 *549:31 0
47 *541:21 *721:A1 0
48 *548:19 *721:A1 0
49 *548:19 *549:31 0
50 *548:21 *549:31 0
*RES
1 *1120:Q *549:8 24.1654 
2 *549:8 *549:12 9.59095 
3 *549:12 *757:B 13.8 
4 *549:12 *549:31 35.4824 
5 *549:31 *882:A 13.8 
6 *549:31 *884:A 16.7107 
7 *549:8 *721:A1 26.4212 
*END

*D_NET *550 0.0111125
*CONN
*I *663:B2 I *D sky130_fd_sc_hd__a222oi_1
*I *887:A I *D sky130_fd_sc_hd__nand2_1
*I *885:A I *D sky130_fd_sc_hd__nand2_1
*I *758:D_N I *D sky130_fd_sc_hd__or4b_1
*I *1121:Q O *D sky130_fd_sc_hd__dfrtp_1
*CAP
1 *663:B2 0.00287387
2 *887:A 0
3 *885:A 0.000312345
4 *758:D_N 0.000322858
5 *1121:Q 6.83493e-05
6 *550:19 0.00155038
7 *550:12 0.00197882
8 *550:8 0.00400586
9 *663:B2 *659:A 0
10 *663:B2 *551:28 0
11 *663:B2 *567:39 0
12 *663:B2 *567:43 0
13 *663:B2 *569:11 0
14 *663:B2 *569:13 0
15 *550:12 *551:28 0
16 *550:19 *757:C 0
17 *654:B *663:B2 0
18 *687:A1 *663:B2 0
19 *687:B2 *663:B2 0
20 *687:B2 *550:12 0
21 *708:A1 *663:B2 0
22 *721:C2 *663:B2 0
23 *758:B *758:D_N 0
24 *758:B *885:A 0
25 *878:A *758:D_N 0
26 *880:A *758:D_N 0
27 *881:A *758:D_N 0
28 *881:A *885:A 0
29 *884:A *885:A 0
30 *885:B *885:A 0
31 *886:A1 *885:A 0
32 *897:A *758:D_N 0
33 *898:A *758:D_N 0
34 *899:A *758:D_N 0
35 *899:B *758:D_N 0
36 *900:A *758:D_N 0
37 *1013:A *550:19 0
38 *1015:A *550:19 0
39 *1119:D *663:B2 0
40 *1120:D *550:19 0
41 *1121:RESET_B *550:8 0
42 *1123:D *663:B2 0
43 *1123:D *550:12 0
44 *1124:D *550:12 0
45 *1125:D *550:19 0
46 *132:6 *663:B2 0
47 *132:12 *663:B2 0
48 *132:76 *663:B2 0
49 *135:20 *663:B2 0
50 *136:8 *663:B2 0
51 *140:8 *663:B2 0
52 *189:22 *663:B2 0
53 *203:71 *663:B2 0
54 *203:150 *758:D_N 0
55 *204:450 *758:D_N 0
56 *455:344 *663:B2 0
57 *533:20 *663:B2 0
58 *537:12 *663:B2 0
59 *538:15 *550:12 0
60 *549:31 *885:A 0
*RES
1 *1121:Q *550:8 18.7011 
2 *550:8 *550:12 7.48125 
3 *550:12 *550:19 13.6846 
4 *550:19 *758:D_N 21.1482 
5 *550:19 *885:A 20.8089 
6 *550:12 *887:A 13.8 
7 *550:8 *663:B2 47.6422 
*END

*D_NET *551 0.00743863
*CONN
*I *890:A I *D sky130_fd_sc_hd__nand2_1
*I *757:C I *D sky130_fd_sc_hd__nand4b_1
*I *888:A I *D sky130_fd_sc_hd__nand2_1
*I *671:B2 I *D sky130_fd_sc_hd__a22o_1
*I *1122:Q O *D sky130_fd_sc_hd__dfrtp_1
*CAP
1 *890:A 0.000138244
2 *757:C 0.000914345
3 *888:A 0
4 *671:B2 0.000711874
5 *1122:Q 2.56688e-05
6 *551:38 0.00127291
7 *551:28 0.00192918
8 *551:7 0.0024464
9 *551:28 *610:57 0
10 *663:B2 *551:28 0
11 *671:A1 *671:B2 0
12 *671:B1 *671:B2 0
13 *710:B2 *671:B2 0
14 *875:A *757:C 0
15 *876:A *757:C 0
16 *887:B *551:38 0
17 *888:B *890:A 0
18 *888:B *551:38 0
19 *889:B1 *551:38 0
20 *891:A *890:A 0
21 *891:B *890:A 0
22 *892:A2 *890:A 0
23 *892:B1 *890:A 0
24 *1015:A *757:C 0
25 *1015:B *757:C 0
26 *1122:D *551:28 0
27 *1122:D *551:38 0
28 *1122:RESET_B *551:7 0
29 *1123:D *551:28 0
30 *148:12 *671:B2 0
31 *148:14 *671:B2 0
32 *203:129 *757:C 0
33 *203:505 *757:C 0
34 *204:484 *757:C 0
35 *204:484 *890:A 0
36 *204:513 *757:C 0
37 *455:10 *551:28 0
38 *455:20 *671:B2 0
39 *455:20 *551:28 0
40 *455:24 *671:B2 0
41 *455:28 *671:B2 0
42 *541:6 *671:B2 0
43 *546:10 *671:B2 0
44 *546:26 *757:C 0
45 *547:12 *757:C 0
46 *548:6 *671:B2 0
47 *548:19 *671:B2 0
48 *550:12 *551:28 0
49 *550:19 *757:C 0
*RES
1 *1122:Q *551:7 14.3357 
2 *551:7 *671:B2 29.4071 
3 *551:7 *551:28 25.6208 
4 *551:28 *888:A 9.3 
5 *551:28 *551:38 9.16071 
6 *551:38 *757:C 33.9607 
7 *551:38 *890:A 16.8179 
*END

*D_NET *552 0.00203226
*CONN
*I *618:B I *D sky130_fd_sc_hd__nand2_1
*I *1055:B1 I *D sky130_fd_sc_hd__a21o_1
*I *751:A I *D sky130_fd_sc_hd__nor3_1
*I *1178:Q O *D sky130_fd_sc_hd__dfrtp_1
*CAP
1 *618:B 0.000141619
2 *1055:B1 2.56688e-05
3 *751:A 0.000582798
4 *1178:Q 0.000183104
5 *552:15 0.000250227
6 *552:7 0.000848841
7 *618:B *726:A 0
8 *618:B *1055:A1 0
9 *751:A *1177:CLK 0
10 *751:A *614:30 0
11 *1055:B1 *1055:A1 0
12 *1081:D *552:7 0
13 *1081:SET_B *751:A 0
14 *1178:RESET_B *751:A 0
15 *203:25 *751:A 0
16 *204:11 *618:B 0
17 *204:11 *751:A 0
18 *204:11 *552:15 0
19 *204:38 *751:A 0
20 *455:382 *552:7 0
*RES
1 *1178:Q *552:7 17.6214 
2 *552:7 *751:A 26.9786 
3 *552:7 *552:15 1.94643 
4 *552:15 *1055:B1 14.3357 
5 *552:15 *618:B 16.9964 
*END

*D_NET *553 0.00350484
*CONN
*I *618:A I *D sky130_fd_sc_hd__nand2_1
*I *1053:A I *D sky130_fd_sc_hd__nand2_1
*I *1177:Q O *D sky130_fd_sc_hd__dfrtp_1
*CAP
1 *618:A 0.000538793
2 *1053:A 0.00121362
3 *1177:Q 0
4 *553:5 0.00175242
5 *1053:A *1082:CLK 0
6 *1054:A1 *1053:A 0
7 *1054:B1 *1053:A 0
8 *1082:RESET_B *1053:A 0
9 *1087:RESET_B *618:A 0
10 *111:20 *618:A 0
11 *455:382 *1053:A 0
12 *455:383 *1053:A 0
13 *455:948 *618:A 0
14 *455:948 *1053:A 0
15 *455:957 *618:A 0
*RES
1 *1177:Q *553:5 13.8 
2 *553:5 *1053:A 39.675 
3 *553:5 *618:A 25.3 
*END

*D_NET *555 0.00149143
*CONN
*I *633:B I *D sky130_fd_sc_hd__xnor2_1
*I *617:A I *D sky130_fd_sc_hd__lpflow_isobufsrc_1
*I *616:SLEEP I *D sky130_fd_sc_hd__lpflow_isobufsrc_1
*I *1190:Q O *D sky130_fd_sc_hd__dfxtp_1
*CAP
1 *633:B 0
2 *617:A 0.000190833
3 *616:SLEEP 0.000124921
4 *1190:Q 0.000328571
5 *555:11 0.000417146
6 *555:9 0.000429963
7 *616:SLEEP *616:A 0
8 *617:A *617:SLEEP 0
9 *617:A *570:14 0
10 *617:A *572:11 0
11 *555:9 *565:24 0
12 *555:9 *571:11 0
13 *555:11 *565:24 0
14 *555:11 *565:26 0
15 *1184:D *617:A 0
16 *1190:D *555:9 0
17 *124:15 *616:SLEEP 0
18 *124:15 *555:9 0
19 *124:15 *555:11 0
*RES
1 *1190:Q *555:9 25.7464 
2 *555:9 *555:11 2.17857 
3 *555:11 *616:SLEEP 11.9071 
4 *555:11 *617:A 22.5143 
5 *555:9 *633:B 9.3 
*END

*D_NET *556 0.0116738
*CONN
*P rst_n I
*I *626:A I *D sky130_fd_sc_hd__nand2_1
*I *627:B I *D sky130_fd_sc_hd__nand2b_1
*I *636:B I *D sky130_fd_sc_hd__and2_0
*I *644:A I *D sky130_fd_sc_hd__lpflow_isobufsrc_1
*I *642:A I *D sky130_fd_sc_hd__lpflow_isobufsrc_1
*I *629:A1 I *D sky130_fd_sc_hd__a32oi_1
*I *620:A I *D sky130_fd_sc_hd__nand2_1
*I *637:A1 I *D sky130_fd_sc_hd__a32oi_1
*I *1062:A I *D sky130_fd_sc_hd__nand2_1
*I *1080:B I *D sky130_fd_sc_hd__and2_0
*CAP
1 rst_n 0.00159456
2 *626:A 0.000529569
3 *627:B 0.000105895
4 *636:B 0
5 *644:A 2.0535e-05
6 *642:A 0.000498134
7 *629:A1 4.23535e-05
8 *620:A 3.22083e-05
9 *637:A1 0.000468731
10 *1062:A 0
11 *1080:B 9.23187e-05
12 *556:53 0.000661369
13 *556:52 0.000424879
14 *556:49 0.000745898
15 *556:45 0.000792088
16 *556:40 0.00106601
17 *556:35 0.000586449
18 *556:33 0.00105963
19 *556:25 0.000817985
20 *556:14 0.00213523
21 *620:A *611:46 0
22 *626:A *626:B 0
23 *626:A *640:A 0
24 *626:A *1059:A 0
25 *626:A *1152:CLK 0
26 *626:A *1183:CLK 0
27 *626:A *557:35 0
28 *627:B uio_out[1] 0
29 *627:B *627:A_N 0
30 *627:B *567:17 0
31 *629:A1 *629:B2 0
32 *637:A1 *620:B 0
33 *637:A1 *625:A 0
34 *637:A1 *611:39 0
35 *637:A1 *611:46 0
36 *642:A *628:A 0
37 *642:A *642:SLEEP 0
38 *1080:B uio_out[0] 0
39 *1080:B *565:17 0
40 *556:14 uio_out[0] 0
41 *556:14 *565:17 0
42 *556:14 *567:12 0
43 *556:14 *570:14 0
44 *556:33 *1061:A 0
45 *556:40 uio_out[1] 0
46 *556:40 *1057:A 0
47 *556:45 *567:27 0
48 *556:45 *592:8 0
49 *556:45 *611:55 0
50 *556:52 *629:B2 0
51 *556:52 *559:8 0
52 *556:52 *611:46 0
53 *556:53 *629:B2 0
54 *629:A3 *556:52 0
55 *629:B1 *642:A 0
56 *629:B1 *556:52 0
57 *630:A1 *637:A1 0
58 *630:A2 *637:A1 0
59 *630:B1 *637:A1 0
60 *630:B1 *556:53 0
61 *637:A3 *637:A1 0
62 *1060:A1 *626:A 0
63 *1061:B *626:A 0
64 *1061:B *556:33 0
65 *1062:B *556:33 0
66 *1063:B *556:25 0
67 *1079:B2 *642:A 0
68 *1181:D *620:A 0
69 *1181:D *637:A1 0
70 *1183:D *626:A 0
71 *1189:D *556:45 0
72 *1504:A *626:A 0
73 *119:61 *642:A 0
74 *119:61 *556:52 0
75 *124:23 *556:45 0
76 *454:10 *556:14 0
77 *455:10 *556:45 0
*RES
1 rst_n *556:14 12.6793 
2 *556:14 *1080:B 15.8982 
3 *556:14 *556:25 13.9375 
4 *556:25 *1062:A 9.3 
5 *556:25 *556:33 7.83929 
6 *556:33 *556:35 3.41071 
7 *556:35 *556:40 11.5893 
8 *556:40 *556:45 20.4107 
9 *556:45 *556:49 5.03571 
10 *556:49 *556:52 9.48214 
11 *556:52 *556:53 3.41071 
12 *556:53 *637:A1 28.4696 
13 *556:53 *620:A 19.0321 
14 *556:52 *629:A1 10.2464 
15 *556:49 *642:A 24.5857 
16 *556:45 *644:A 9.72857 
17 *556:40 *636:B 13.8 
18 *556:35 *627:B 21.4161 
19 *556:33 *626:A 30.8714 
*END

*D_NET *557 0.00386198
*CONN
*I *1058:A1 I *D sky130_fd_sc_hd__o41ai_1
*I *1059:B I *D sky130_fd_sc_hd__nor3_1
*I *629:B2 I *D sky130_fd_sc_hd__a32oi_1
*I *642:SLEEP I *D sky130_fd_sc_hd__lpflow_isobufsrc_1
*I *1179:Q O *D sky130_fd_sc_hd__dfxtp_1
*CAP
1 *1058:A1 0.00010321
2 *1059:B 0
3 *629:B2 0.000207218
4 *642:SLEEP 0.000321715
5 *1179:Q 8.25679e-05
6 *557:35 0.00110018
7 *557:18 0.00142349
8 *557:7 0.000623587
9 *642:SLEEP *611:55 0
10 *557:18 *644:SLEEP 0
11 *626:A *557:35 0
12 *629:A1 *629:B2 0
13 *629:B1 *629:B2 0
14 *629:B1 *557:18 0
15 *630:B1 *629:B2 0
16 *642:A *642:SLEEP 0
17 *1058:A2 *1058:A1 0
18 *1058:A4 *1058:A1 0
19 *1079:B2 *557:7 0
20 *1079:B2 *557:18 0
21 *1179:D *642:SLEEP 0
22 *1183:D *1058:A1 0
23 *437:37 *557:35 0
24 *455:10 *629:B2 0
25 *455:10 *557:18 0
26 *556:52 *629:B2 0
27 *556:53 *629:B2 0
*RES
1 *1179:Q *557:7 11.0857 
2 *557:7 *642:SLEEP 16.0143 
3 *557:7 *557:18 9.48214 
4 *557:18 *629:B2 18.3179 
5 *557:18 *557:35 34.4643 
6 *557:35 *1059:B 9.3 
7 *557:35 *1058:A1 11.7464 
*END

*D_NET *558 0.00675537
*CONN
*I *634:A I *D sky130_fd_sc_hd__nand2_1
*I *640:A I *D sky130_fd_sc_hd__nand2_1
*I *1078:A I *D sky130_fd_sc_hd__nor2_1
*I *637:B2 I *D sky130_fd_sc_hd__a32oi_1
*I *635:A I *D sky130_fd_sc_hd__nand3_1
*I *1180:Q O *D sky130_fd_sc_hd__dfxtp_1
*CAP
1 *634:A 0.000102247
2 *640:A 0.000398499
3 *1078:A 0
4 *637:B2 0.000152508
5 *635:A 0.000742475
6 *1180:Q 0
7 *558:46 0.00103894
8 *558:39 0.00162473
9 *558:23 0.00159627
10 *558:4 0.0010997
11 *634:A *590:7 0
12 *635:A *561:17 0
13 *635:A *610:96 0
14 *640:A uo_out[5] 0
15 *640:A *567:21 0
16 *558:39 uio_out[2] 0
17 *558:39 uio_out[3] 0
18 *558:39 uio_out[6] 0
19 *558:39 uio_out[7] 0
20 *558:39 *563:9 0
21 *558:39 *592:18 0
22 *558:46 *636:A 0
23 *558:46 *590:7 0
24 *626:A *640:A 0
25 *634:B *634:A 0
26 *635:C *558:39 0
27 *637:B1 *637:B2 0
28 *638:B1 *635:A 0
29 *638:B1 *637:B2 0
30 *638:B1 *558:23 0
31 *643:A3 *558:39 0
32 *1057:B *558:46 0
33 *1078:B *558:39 0
34 *1180:D *635:A 0
35 *1183:D *640:A 0
36 *1186:D *635:A 0
37 *1187:D *635:A 0
38 *1504:A *640:A 0
39 *124:15 *634:A 0
40 *124:19 *634:A 0
41 *124:19 *558:46 0
42 *127:11 *558:46 0
43 *127:20 *637:B2 0
44 *127:20 *558:39 0
*RES
1 *1180:Q *558:4 9.3 
2 *558:4 *635:A 34.2643 
3 *558:4 *558:23 12.0179 
4 *558:23 *637:B2 17.2643 
5 *558:23 *558:39 19.0379 
6 *558:39 *1078:A 9.3 
7 *558:39 *558:46 11.2321 
8 *558:46 *640:A 27.2643 
9 *558:46 *634:A 11.4964 
*END

*D_NET *559 0.00477571
*CONN
*I *1056:A I *D sky130_fd_sc_hd__lpflow_inputiso1p_1
*I *620:B I *D sky130_fd_sc_hd__nand2_1
*I *637:A2 I *D sky130_fd_sc_hd__a32oi_1
*I *1064:A I *D sky130_fd_sc_hd__nand2_1
*I *1181:Q O *D sky130_fd_sc_hd__dfxtp_1
*CAP
1 *1056:A 0.000140702
2 *620:B 0.000127923
3 *637:A2 2.55228e-05
4 *1064:A 0.00143801
5 *1181:Q 0
6 *559:11 0.00182814
7 *559:8 0.000783625
8 *559:4 0.000431795
9 *1056:A *560:10 0
10 *559:11 *567:43 0
11 *630:B1 *620:B 0
12 *637:A1 *620:B 0
13 *641:A1 *1056:A 0
14 *641:A1 *559:8 0
15 *1064:B *1064:A 0
16 *1123:D *559:11 0
17 *1181:D *620:B 0
18 *1181:D *559:8 0
19 *113:35 *1064:A 0
20 *113:35 *559:11 0
21 *114:9 *559:8 0
22 *116:22 *637:A2 0
23 *119:24 *1064:A 0
24 *119:24 *559:11 0
25 *127:32 *1064:A 0
26 *455:10 *1056:A 0
27 *556:52 *559:8 0
*RES
1 *1181:Q *559:4 9.3 
2 *559:4 *559:8 10.6339 
3 *559:8 *559:11 4.7542 
4 *559:11 *1064:A 22.6505 
5 *559:11 *637:A2 17.7904 
6 *559:8 *620:B 16.8268 
7 *559:4 *1056:A 21.4071 
*END

*D_NET *560 0.00233876
*CONN
*I *626:B I *D sky130_fd_sc_hd__nand2_1
*I *1056:SLEEP I *D sky130_fd_sc_hd__lpflow_inputiso1p_1
*I *629:A2 I *D sky130_fd_sc_hd__a32oi_1
*I *1182:Q O *D sky130_fd_sc_hd__dfxtp_1
*CAP
1 *626:B 0.000246122
2 *1056:SLEEP 0
3 *629:A2 0.000186954
4 *1182:Q 0
5 *560:10 0.000923256
6 *560:4 0.000982424
7 *626:B *1152:CLK 0
8 *560:10 *1182:CLK 0
9 *560:10 *611:58 0
10 *626:A *626:B 0
11 *708:A1 *626:B 0
12 *1056:A *560:10 0
13 *1152:D *626:B 0
14 *1182:D *560:10 0
15 *1504:A *626:B 0
16 *455:10 *560:10 0
*RES
1 *1182:Q *560:4 9.3 
2 *560:4 *560:10 24.6964 
3 *560:10 *629:A2 13.2643 
4 *560:10 *1056:SLEEP 9.3 
5 *560:4 *626:B 23.6571 
*END

*D_NET *561 0.00528488
*CONN
*I *1069:B I *D sky130_fd_sc_hd__nand2_1
*I *1076:A2 I *D sky130_fd_sc_hd__a21oi_1
*I *623:B I *D sky130_fd_sc_hd__nor2_1
*I *631:C I *D sky130_fd_sc_hd__nor3_1
*I *624:C I *D sky130_fd_sc_hd__nor3_1
*I *1067:S I *D sky130_fd_sc_hd__mux2_1
*I *632:A3 I *D sky130_fd_sc_hd__o31ai_1
*I *1185:Q O *D sky130_fd_sc_hd__dfxtp_1
*CAP
1 *1069:B 2.69522e-05
2 *1076:A2 0
3 *623:B 6.28885e-05
4 *631:C 0
5 *624:C 0.000284469
6 *1067:S 0.000144584
7 *632:A3 4.62038e-05
8 *1185:Q 0.000988248
9 *561:73 6.20329e-05
10 *561:49 0.000546079
11 *561:45 0.000460688
12 *561:38 0.000717801
13 *561:28 0.000800796
14 *561:17 0.00114413
15 *624:C *621:B 0
16 *624:C *624:B 0
17 *1067:S *632:A2 0
18 *1067:S *632:B1 0
19 *561:17 *1185:CLK 0
20 *561:17 *1187:CLK 0
21 *561:28 *632:A2 0
22 *561:28 *632:B1 0
23 *561:38 *562:28 0
24 *561:45 *631:B 0
25 *561:45 *563:16 0
26 *561:49 *621:B 0
27 *561:49 *563:14 0
28 *561:49 *563:16 0
29 *635:A *561:17 0
30 *1068:B *561:38 0
31 *1071:B *623:B 0
32 *1071:B *561:49 0
33 *1072:A2 *561:38 0
34 *1072:A2 *561:45 0
35 *1073:B *623:B 0
36 *1073:B *561:49 0
37 *1074:B1 *561:28 0
38 *1075:B *1067:S 0
39 *1077:A4 *1069:B 0
40 *1077:A4 *561:38 0
41 *1077:A4 *561:45 0
42 *1077:A4 *561:73 0
43 *1187:D *632:A3 0
44 *1187:D *561:17 0
45 *116:13 *624:C 0
46 *123:7 *561:17 0
47 *127:56 *1067:S 0
48 *127:56 *561:38 0
*RES
1 *1185:Q *561:17 30.3893 
2 *561:17 *632:A3 10.2643 
3 *561:17 *561:28 7.05357 
4 *561:28 *1067:S 16.9607 
5 *561:28 *561:38 16.125 
6 *561:38 *561:45 12.0893 
7 *561:45 *561:49 10.25 
8 *561:49 *624:C 20.1393 
9 *561:49 *631:C 13.8 
10 *561:45 *623:B 10.675 
11 *561:38 *561:73 0.732143 
12 *561:73 *1076:A2 9.3 
13 *561:73 *1069:B 9.8625 
*END

*D_NET *562 0.00477592
*CONN
*I *632:A2 I *D sky130_fd_sc_hd__o31ai_1
*I *623:A I *D sky130_fd_sc_hd__nor2_1
*I *1069:A I *D sky130_fd_sc_hd__nand2_1
*I *1076:A1 I *D sky130_fd_sc_hd__a21oi_1
*I *624:B I *D sky130_fd_sc_hd__nor3_1
*I *631:B I *D sky130_fd_sc_hd__nor3_1
*I *1068:A I *D sky130_fd_sc_hd__nand2_1
*I *1186:Q O *D sky130_fd_sc_hd__dfxtp_1
*CAP
1 *632:A2 0.000127926
2 *623:A 8.57316e-05
3 *1069:A 0
4 *1076:A1 0
5 *624:B 0.000202546
6 *631:B 0.000208975
7 *1068:A 0
8 *1186:Q 0.00101753
9 *562:41 0.00041624
10 *562:38 0.000113596
11 *562:29 0.000148793
12 *562:28 0.00049325
13 *562:14 0.000591743
14 *562:9 0.00136959
15 *624:B *621:B 0
16 *624:B *624:A 0
17 *631:B *621:B 0
18 *631:B *563:16 0
19 *562:9 uio_oe[3] 0
20 *562:9 *563:9 0
21 *562:9 *610:87 0
22 *562:9 *610:96 0
23 *562:14 *563:9 0
24 *562:14 *563:14 0
25 *624:C *624:B 0
26 *1067:S *632:A2 0
27 *1070:B *623:A 0
28 *1070:B *562:29 0
29 *1071:A *623:A 0
30 *1072:A1 *562:29 0
31 *1072:A1 *562:38 0
32 *1072:A2 *631:B 0
33 *1072:A2 *562:29 0
34 *1072:A2 *562:38 0
35 *1074:A2 *562:28 0
36 *1074:B1 *632:A2 0
37 *1076:B1 *631:B 0
38 *1077:A4 *631:B 0
39 *1077:A4 *562:38 0
40 *1186:D *562:9 0
41 *1186:D *562:14 0
42 *1187:D *632:A2 0
43 *113:15 *624:B 0
44 *116:13 *624:B 0
45 *127:32 *562:9 0
46 *447:6 *623:A 0
47 *447:6 *562:29 0
48 *561:28 *632:A2 0
49 *561:38 *562:28 0
50 *561:45 *631:B 0
*RES
1 *1186:Q *562:9 24.2034 
2 *562:9 *562:14 4.45445 
3 *562:14 *1068:A 13.8 
4 *562:14 *562:28 16.8571 
5 *562:28 *562:29 1.03571 
6 *562:29 *562:38 7.25 
7 *562:38 *562:41 4.77679 
8 *562:41 *631:B 18.3268 
9 *562:41 *624:B 18.3625 
10 *562:38 *1076:A1 9.3 
11 *562:29 *1069:A 13.8 
12 *562:28 *623:A 15.7464 
13 *562:9 *632:A2 20.0493 
*END

*D_NET *563 0.00514595
*CONN
*I *632:A1 I *D sky130_fd_sc_hd__o31ai_1
*I *1074:A1 I *D sky130_fd_sc_hd__a22o_1
*I *1073:A I *D sky130_fd_sc_hd__xnor2_1
*I *631:A I *D sky130_fd_sc_hd__nor3_1
*I *621:B I *D sky130_fd_sc_hd__nor2_1
*I *1187:Q O *D sky130_fd_sc_hd__dfxtp_1
*CAP
1 *632:A1 0
2 *1074:A1 0.00011551
3 *1073:A 0
4 *631:A 0
5 *621:B 0.000371126
6 *1187:Q 0.001385
7 *563:46 0.000127661
8 *563:16 0.000480847
9 *563:14 0.000689185
10 *563:9 0.00197662
11 *621:B *624:A 0
12 *563:9 uio_oe[0] 0
13 *563:9 uio_oe[1] 0
14 *563:9 uio_oe[2] 0
15 *563:9 uio_oe[3] 0
16 *563:9 uio_oe[5] 0
17 *563:9 uio_oe[6] 0
18 *563:9 uio_oe[7] 0
19 *563:9 uio_out[7] 0
20 *624:B *621:B 0
21 *624:C *621:B 0
22 *631:B *621:B 0
23 *631:B *563:16 0
24 *635:C *563:9 0
25 *1065:A2 *563:14 0
26 *1074:B1 *1074:A1 0
27 *1074:B2 *1074:A1 0
28 *1187:D *1074:A1 0
29 *113:15 *621:B 0
30 *116:13 *621:B 0
31 *127:32 *563:9 0
32 *558:39 *563:9 0
33 *561:45 *563:16 0
34 *561:49 *621:B 0
35 *561:49 *563:14 0
36 *561:49 *563:16 0
37 *562:9 *563:9 0
38 *562:14 *563:9 0
39 *562:14 *563:14 0
*RES
1 *1187:Q *563:9 22.9694 
2 *563:9 *563:14 5.75165 
3 *563:14 *563:16 2.55357 
4 *563:16 *621:B 30.925 
5 *563:16 *631:A 13.8 
6 *563:14 *1073:A 13.8 
7 *563:9 *563:46 8.18679 
8 *563:46 *1074:A1 11.925 
9 *563:46 *632:A1 9.3 
*END

*D_NET *564 0.00446562
*CONN
*I *632:B1 I *D sky130_fd_sc_hd__o31ai_1
*I *1075:A I *D sky130_fd_sc_hd__nand2_1
*I *624:A I *D sky130_fd_sc_hd__nor3_1
*I *621:A I *D sky130_fd_sc_hd__nor2_1
*I *1188:Q O *D sky130_fd_sc_hd__dfxtp_1
*CAP
1 *632:B1 0.000455419
2 *1075:A 9.52765e-05
3 *624:A 9.28354e-05
4 *621:A 0
5 *1188:Q 0.000908247
6 *564:19 0.000510227
7 *564:10 0.000776306
8 *564:5 0.0016273
9 *564:5 *1188:CLK 0
10 *621:B *624:A 0
11 *624:B *624:A 0
12 *1067:S *632:B1 0
13 *1075:B *632:B1 0
14 *108:11 *564:5 0
15 *113:35 *564:10 0
16 *113:35 *564:19 0
17 *116:13 *624:A 0
18 *116:13 *564:19 0
19 *116:22 *564:5 0
20 *116:22 *564:10 0
21 *561:28 *632:B1 0
*RES
1 *1188:Q *564:5 28.3179 
2 *564:5 *564:10 10.375 
3 *564:10 *564:19 22.375 
4 *564:19 *621:A 9.3 
5 *564:19 *624:A 11.5143 
6 *564:10 *1075:A 15.9786 
7 *564:5 *632:B1 29.05 
*END

*D_NET *565 0.00439972
*CONN
*P ui_in[0] I
*I *633:A I *D sky130_fd_sc_hd__xnor2_1
*I *616:A I *D sky130_fd_sc_hd__lpflow_isobufsrc_1
*I *617:SLEEP I *D sky130_fd_sc_hd__lpflow_isobufsrc_1
*I *1080:A I *D sky130_fd_sc_hd__and2_0
*CAP
1 ui_in[0] 0.00170017
2 *633:A 0
3 *616:A 0.000143103
4 *617:SLEEP 0.000125785
5 *1080:A 0
6 *565:26 0.000374773
7 *565:24 0.000230805
8 *565:17 0.00182509
9 *616:A *590:31 0
10 *617:SLEEP *570:14 0
11 *565:17 uio_out[0] 0
12 *565:17 *567:12 0
13 *565:17 *570:14 0
14 *565:24 *590:31 0
15 *565:26 *590:31 0
16 *616:SLEEP *616:A 0
17 *617:A *617:SLEEP 0
18 *709:B2 *565:17 0
19 *716:A *565:17 0
20 *1063:B *617:SLEEP 0
21 *1080:B *565:17 0
22 *124:15 *616:A 0
23 *124:15 *565:24 0
24 *555:9 *565:24 0
25 *555:11 *565:24 0
26 *555:11 *565:26 0
27 *556:14 *565:17 0
*RES
1 ui_in[0] *565:17 15.7717 
2 *565:17 *1080:A 9.3 
3 *565:17 *565:24 2.60714 
4 *565:24 *565:26 2.17857 
5 *565:26 *617:SLEEP 21.1571 
6 *565:26 *616:A 12.3179 
7 *565:24 *633:A 9.3 
*END

*D_NET *567 0.0154944
*CONN
*P ui_in[2] I
*I *1059:A I *D sky130_fd_sc_hd__nor3_1
*I *627:A_N I *D sky130_fd_sc_hd__nand2b_1
*I *636:A I *D sky130_fd_sc_hd__and2_0
*I *676:B1 I *D sky130_fd_sc_hd__o21a_1
*I *669:B1 I *D sky130_fd_sc_hd__o21a_1
*I *684:B1 I *D sky130_fd_sc_hd__o21a_1
*I *691:B1 I *D sky130_fd_sc_hd__o21a_1
*I *699:B1 I *D sky130_fd_sc_hd__o21a_1
*I *723:B1 I *D sky130_fd_sc_hd__o21a_1
*I *715:B1 I *D sky130_fd_sc_hd__o21a_1
*I *625:A I *D sky130_fd_sc_hd__nor3_1
*I *622:A I *D sky130_fd_sc_hd__nor2_1
*I *708:B1 I *D sky130_fd_sc_hd__o21a_1
*CAP
1 ui_in[2] 0.00199195
2 *1059:A 0.000198233
3 *627:A_N 6.7838e-06
4 *636:A 0.000219896
5 *676:B1 2.94948e-05
6 *669:B1 0.0004129
7 *684:B1 0.000139078
8 *691:B1 0
9 *699:B1 0.000222677
10 *723:B1 0.000161927
11 *715:B1 2.26741e-05
12 *625:A 0.000127378
13 *622:A 0
14 *708:B1 0.000136237
15 *567:132 0.000743507
16 *567:119 0.000781956
17 *567:110 0.00038412
18 *567:93 0.000801792
19 *567:87 0.000701028
20 *567:71 0.00119079
21 *567:43 0.000836761
22 *567:39 0.00194095
23 *567:27 0.000864578
24 *567:21 0.000702372
25 *567:17 0.000376505
26 *567:12 0.00250083
27 *625:A *611:46 0
28 *1059:A *1183:CLK 0
29 *567:12 uio_out[0] 0
30 *567:12 uo_out[0] 0
31 *567:12 *569:11 0
32 *567:12 *571:11 0
33 *567:17 uio_out[0] 0
34 *567:17 uo_out[5] 0
35 *567:17 *1057:A 0
36 *567:21 *1057:A 0
37 *567:27 uo_out[5] 0
38 *567:71 *1163:CLK 0
39 *567:71 *611:58 0
40 *567:71 *611:60 0
41 *625:B *625:A 0
42 *626:A *1059:A 0
43 *627:B *627:A_N 0
44 *627:B *567:17 0
45 *637:A1 *625:A 0
46 *640:A *567:21 0
47 *640:B *567:27 0
48 *641:A2 *708:B1 0
49 *641:B1 *567:27 0
50 *663:B2 *567:39 0
51 *663:B2 *567:43 0
52 *676:A1 *669:B1 0
53 *676:A1 *567:93 0
54 *676:A1 *567:119 0
55 *676:A2 *676:B1 0
56 *676:A2 *567:132 0
57 *678:B1 *723:B1 0
58 *687:B2 *567:71 0
59 *690:B *567:87 0
60 *691:A2 *567:119 0
61 *696:B2 *684:B1 0
62 *696:B2 *567:119 0
63 *697:C1 *567:132 0
64 *697:C2 *567:132 0
65 *721:B1 *567:87 0
66 *721:B2 *567:87 0
67 *721:C2 *567:87 0
68 *722:C *567:93 0
69 *722:C *567:110 0
70 *722:C *567:119 0
71 *723:A1 *723:B1 0
72 *723:A2 *699:B1 0
73 *723:A2 *723:B1 0
74 *743:D *684:B1 0
75 *1011:A *567:71 0
76 *1013:A *567:71 0
77 *1057:B *636:A 0
78 *1058:B1 *636:A 0
79 *1060:A1 *1059:A 0
80 *1061:B *1059:A 0
81 *1123:D *567:43 0
82 *1123:D *567:71 0
83 *1163:D *567:71 0
84 *1163:RESET_B *567:71 0
85 *1504:A *567:27 0
86 *1504:A *567:119 0
87 *119:8 *567:27 0
88 *119:13 *567:27 0
89 *119:13 *567:39 0
90 *119:13 *567:43 0
91 *119:24 *567:43 0
92 *124:19 *636:A 0
93 *124:23 *567:27 0
94 *127:11 *636:A 0
95 *132:21 *669:B1 0
96 *132:77 *567:71 0
97 *145:21 *684:B1 0
98 *146:16 *567:132 0
99 *147:57 *699:B1 0
100 *149:15 *567:87 0
101 *195:10 *567:93 0
102 *454:10 *567:12 0
103 *454:10 *567:17 0
104 *455:344 *567:39 0
105 *455:344 *567:71 0
106 *469:14 *567:93 0
107 *513:30 *567:71 0
108 *534:16 *669:B1 0
109 *556:14 *567:12 0
110 *556:45 *567:27 0
111 *558:46 *636:A 0
112 *559:11 *567:43 0
113 *565:17 *567:12 0
*RES
1 ui_in[2] *567:12 10.7451 
2 *567:12 *567:17 5.66109 
3 *567:17 *567:21 1.41964 
4 *567:21 *567:27 9.74107 
5 *567:27 *708:B1 16.6661 
6 *567:27 *567:39 4.538 
7 *567:39 *567:43 5.97933 
8 *567:43 *622:A 13.8 
9 *567:43 *625:A 16.6929 
10 *567:39 *567:71 37.6868 
11 *567:71 *715:B1 9.83571 
12 *567:71 *567:87 14.2857 
13 *567:87 *567:93 18.2857 
14 *567:93 *723:B1 12.7107 
15 *567:93 *699:B1 13.9786 
16 *567:87 *567:110 0.946429 
17 *567:110 *691:B1 9.3 
18 *567:110 *567:119 11.9107 
19 *567:119 *684:B1 16.9607 
20 *567:119 *567:132 15.3929 
21 *567:132 *669:B1 31.55 
22 *567:132 *676:B1 14.5321 
23 *567:21 *636:A 18.6036 
24 *567:17 *627:A_N 14.0768 
25 *567:12 *1059:A 21.6654 
*END

*D_NET *569 0.00631607
*CONN
*P ui_in[4] I
*I *648:A_N I *D sky130_fd_sc_hd__nand2b_1
*I *658:A I *D sky130_fd_sc_hd__nor3_1
*I *656:B I *D sky130_fd_sc_hd__nand2b_1
*I *646:A I *D sky130_fd_sc_hd__nand2_1
*I *645:A I *D sky130_fd_sc_hd__nor4_1
*I *659:A I *D sky130_fd_sc_hd__nor3_1
*CAP
1 ui_in[4] 0.00204506
2 *648:A_N 0
3 *658:A 9.89059e-05
4 *656:B 9.49745e-05
5 *646:A 4.53482e-05
6 *645:A 2.56688e-05
7 *659:A 0.000207261
8 *569:50 0.000479577
9 *569:34 0.000589872
10 *569:33 0.000258827
11 *569:13 0.00032922
12 *569:11 0.00214135
13 *656:B *656:A_N 0
14 *659:A *659:B 0
15 *569:11 *570:14 0
16 *569:11 *571:11 0
17 *569:50 *653:A_N 0
18 *569:50 *656:A_N 0
19 *569:50 *570:49 0
20 *569:50 *570:53 0
21 *569:50 *571:42 0
22 *647:C *646:A 0
23 *647:C *569:34 0
24 *647:C *569:50 0
25 *654:A *659:A 0
26 *654:B *659:A 0
27 *663:B2 *659:A 0
28 *663:B2 *569:11 0
29 *663:B2 *569:13 0
30 *701:A *569:11 0
31 *708:A1 *569:11 0
32 *143:10 *656:B 0
33 *203:71 *569:11 0
34 *455:358 *569:11 0
35 *497:14 *569:11 0
36 *498:25 *646:A 0
37 *498:25 *569:34 0
38 *533:20 *659:A 0
39 *533:20 *569:11 0
40 *533:20 *569:13 0
41 *567:12 *569:11 0
*RES
1 ui_in[4] *569:11 16.1722 
2 *569:11 *569:13 2.25 
3 *569:13 *659:A 18.2464 
4 *569:13 *645:A 14.3357 
5 *569:11 *569:33 4.5 
6 *569:33 *569:34 5.46429 
7 *569:34 *646:A 10.2464 
8 *569:34 *569:50 15.2143 
9 *569:50 *656:B 11.2196 
10 *569:50 *658:A 20.55 
11 *569:33 *648:A_N 9.3 
*END

*D_NET *570 0.00662044
*CONN
*P ui_in[5] I
*I *646:B I *D sky130_fd_sc_hd__nand2_1
*I *658:B I *D sky130_fd_sc_hd__nor3_1
*I *656:A_N I *D sky130_fd_sc_hd__nand2b_1
*I *645:B I *D sky130_fd_sc_hd__nor4_1
*I *659:B I *D sky130_fd_sc_hd__nor3_1
*I *648:B I *D sky130_fd_sc_hd__nand2b_1
*CAP
1 ui_in[5] 0.00192206
2 *646:B 0
3 *658:B 0.000243405
4 *656:A_N 0.000189494
5 *645:B 4.53482e-05
6 *659:B 0.000242871
7 *648:B 0
8 *570:53 0.000538019
9 *570:49 0.000544007
10 *570:23 0.000411251
11 *570:22 0.00056192
12 *570:14 0.00192206
13 *658:B *653:B 0
14 *658:B *660:A 0
15 *570:14 uio_out[0] 0
16 *570:14 *571:11 0
17 *570:14 *572:11 0
18 *570:23 *652:B 0
19 *570:23 *572:11 0
20 *617:A *570:14 0
21 *617:SLEEP *570:14 0
22 *654:B *659:B 0
23 *656:B *656:A_N 0
24 *659:A *659:B 0
25 *660:C *658:B 0
26 *135:9 *659:B 0
27 *140:32 *658:B 0
28 *143:10 *656:A_N 0
29 *147:10 *658:B 0
30 *203:71 *570:49 0
31 *498:25 *658:B 0
32 *498:25 *570:49 0
33 *498:25 *570:53 0
34 *533:20 *570:23 0
35 *533:20 *570:49 0
36 *556:14 *570:14 0
37 *565:17 *570:14 0
38 *569:11 *570:14 0
39 *569:50 *656:A_N 0
40 *569:50 *570:49 0
41 *569:50 *570:53 0
*RES
1 ui_in[5] *570:14 36.5508 
2 *570:14 *648:B 9.3 
3 *570:14 *570:22 4.5 
4 *570:22 *570:23 2.85714 
5 *570:23 *659:B 18.9786 
6 *570:23 *645:B 14.7464 
7 *570:22 *570:49 18.3929 
8 *570:49 *570:53 2.48214 
9 *570:53 *656:A_N 17.7643 
10 *570:53 *658:B 19.1393 
11 *570:49 *646:B 13.8 
*END

*D_NET *571 0.00576282
*CONN
*P ui_in[6] I
*I *649:A_N I *D sky130_fd_sc_hd__nand2b_1
*I *645:C I *D sky130_fd_sc_hd__nor4_1
*I *653:B I *D sky130_fd_sc_hd__nand2b_1
*I *660:A I *D sky130_fd_sc_hd__nor3_1
*I *647:A I *D sky130_fd_sc_hd__nor3_1
*I *652:A I *D sky130_fd_sc_hd__nor3_1
*CAP
1 ui_in[6] 0.00181161
2 *649:A_N 2.0535e-05
3 *645:C 0
4 *653:B 5.54273e-05
5 *660:A 0.000183672
6 *647:A 7.23213e-05
7 *652:A 0.000237772
8 *571:42 0.000402524
9 *571:30 0.000428646
10 *571:25 0.000254933
11 *571:23 0.00016428
12 *571:11 0.0021311
13 *653:B *572:38 0
14 *571:11 *572:11 0
15 *571:11 *614:40 0
16 *571:25 *572:25 0
17 *571:30 *572:25 0
18 *571:30 *572:27 0
19 *647:C *647:A 0
20 *647:C *660:A 0
21 *658:B *653:B 0
22 *658:B *660:A 0
23 *660:C *660:A 0
24 *682:C1 *652:A 0
25 *703:B *652:A 0
26 *703:B *571:11 0
27 *708:A1 *571:11 0
28 *1081:D *571:11 0
29 *1190:D *571:11 0
30 *134:14 *660:A 0
31 *135:9 *571:11 0
32 *139:8 *652:A 0
33 *140:8 *571:30 0
34 *140:8 *571:42 0
35 *147:10 *660:A 0
36 *203:71 *647:A 0
37 *454:10 *571:11 0
38 *555:9 *571:11 0
39 *567:12 *571:11 0
40 *569:11 *571:11 0
41 *569:50 *571:42 0
42 *570:14 *571:11 0
*RES
1 ui_in[6] *571:11 30.3195 
2 *571:11 *652:A 19.1214 
3 *571:11 *571:23 6.26786 
4 *571:23 *571:25 1.35714 
5 *571:25 *571:30 8.64286 
6 *571:30 *647:A 15.4429 
7 *571:30 *571:42 12.4107 
8 *571:42 *660:A 17.8179 
9 *571:42 *653:B 15.0991 
10 *571:25 *645:C 9.3 
11 *571:23 *649:A_N 9.72857 
*END

*D_NET *572 0.00544462
*CONN
*P ui_in[7] I
*I *649:B I *D sky130_fd_sc_hd__nand2b_1
*I *645:D I *D sky130_fd_sc_hd__nor4_1
*I *647:B I *D sky130_fd_sc_hd__nor3_1
*I *660:B I *D sky130_fd_sc_hd__nor3_1
*I *653:A_N I *D sky130_fd_sc_hd__nand2b_1
*I *652:B I *D sky130_fd_sc_hd__nor3_1
*CAP
1 ui_in[7] 0.00174277
2 *649:B 4.70594e-06
3 *645:D 0
4 *647:B 0
5 *660:B 8.86234e-05
6 *653:A_N 0.00016428
7 *652:B 0.000300317
8 *572:38 0.000203712
9 *572:27 0.000439799
10 *572:25 0.000306528
11 *572:22 0.000150804
12 *572:11 0.00204308
13 *652:B *607:82 0
14 *572:11 *591:9 0
15 *617:A *572:11 0
16 *647:C *572:38 0
17 *653:B *572:38 0
18 *703:B *652:B 0
19 *1177:D *572:11 0
20 *135:9 *652:B 0
21 *135:9 *572:11 0
22 *136:8 *572:25 0
23 *136:8 *572:27 0
24 *140:8 *653:A_N 0
25 *454:10 *572:11 0
26 *533:10 *572:11 0
27 *533:18 *572:11 0
28 *533:20 *652:B 0
29 *533:20 *572:11 0
30 *569:50 *653:A_N 0
31 *570:14 *572:11 0
32 *570:23 *652:B 0
33 *570:23 *572:11 0
34 *571:11 *572:11 0
35 *571:25 *572:25 0
36 *571:30 *572:25 0
37 *571:30 *572:27 0
*RES
1 ui_in[7] *572:11 28.7985 
2 *572:11 *652:B 20.4429 
3 *572:11 *572:22 4.5 
4 *572:22 *572:25 3.01786 
5 *572:25 *572:27 3.41071 
6 *572:27 *653:A_N 12.7286 
7 *572:27 *572:38 7.05357 
8 *572:38 *660:B 15.6929 
9 *572:38 *647:B 13.8 
10 *572:25 *645:D 9.3 
11 *572:22 *649:B 9.42946 
*END

*D_NET *581 0.000844376
*CONN
*P uio_oe[0] O
*I *1191:HI O *D sky130_fd_sc_hd__conb_1
*CAP
1 uio_oe[0] 0.000422188
2 *1191:HI 0.000422188
3 uio_oe[0] uio_oe[1] 0
4 uio_oe[0] uio_out[7] 0
5 *635:C uio_oe[0] 0
6 *563:9 uio_oe[0] 0
*RES
1 *1191:HI uio_oe[0] 22.4791 
*END

*D_NET *582 0.000868894
*CONN
*P uio_oe[1] O
*I *1192:HI O *D sky130_fd_sc_hd__conb_1
*CAP
1 uio_oe[1] 0.000434447
2 *1192:HI 0.000434447
3 uio_oe[1] uio_oe[2] 0
4 uio_oe[1] uio_out[7] 0
5 uio_oe[0] uio_oe[1] 0
6 *127:32 uio_oe[1] 0
7 *563:9 uio_oe[1] 0
*RES
1 *1192:HI uio_oe[1] 23.5806 
*END

*D_NET *583 0.00086889
*CONN
*P uio_oe[2] O
*I *1193:HI O *D sky130_fd_sc_hd__conb_1
*CAP
1 uio_oe[2] 0.000434445
2 *1193:HI 0.000434445
3 uio_oe[2] uio_oe[3] 0
4 uio_oe[1] uio_oe[2] 0
5 *127:32 uio_oe[2] 0
6 *563:9 uio_oe[2] 0
*RES
1 *1193:HI uio_oe[2] 23.5806 
*END

*D_NET *584 0.000989586
*CONN
*P uio_oe[3] O
*I *1194:HI O *D sky130_fd_sc_hd__conb_1
*CAP
1 uio_oe[3] 0.000494793
2 *1194:HI 0.000494793
3 uio_oe[3] uio_oe[4] 0
4 uio_oe[3] uio_oe[5] 0
5 uio_oe[3] *610:96 0
6 uio_oe[2] uio_oe[3] 0
7 *127:32 uio_oe[3] 0
8 *562:9 uio_oe[3] 0
9 *563:9 uio_oe[3] 0
*RES
1 *1194:HI uio_oe[3] 24.2974 
*END

*D_NET *585 0.000704425
*CONN
*P uio_oe[4] O
*I *1195:HI O *D sky130_fd_sc_hd__conb_1
*CAP
1 uio_oe[4] 0.000352213
2 *1195:HI 0.000352213
3 uio_oe[4] uio_oe[5] 0
4 uio_oe[3] uio_oe[4] 0
5 *643:A2 uio_oe[4] 0
*RES
1 *1195:HI uio_oe[4] 25.9968 
*END

*D_NET *586 0.000525947
*CONN
*P uio_oe[5] O
*I *1196:HI O *D sky130_fd_sc_hd__conb_1
*CAP
1 uio_oe[5] 0.000262973
2 *1196:HI 0.000262973
3 uio_oe[5] uio_oe[6] 0
4 uio_oe[3] uio_oe[5] 0
5 uio_oe[4] uio_oe[5] 0
6 *563:9 uio_oe[5] 0
*RES
1 *1196:HI uio_oe[5] 21.9026 
*END

*D_NET *587 0.000605583
*CONN
*P uio_oe[6] O
*I *1197:HI O *D sky130_fd_sc_hd__conb_1
*CAP
1 uio_oe[6] 0.000302791
2 *1197:HI 0.000302791
3 uio_oe[6] uio_oe[7] 0
4 uio_oe[5] uio_oe[6] 0
5 *635:C uio_oe[6] 0
6 *563:9 uio_oe[6] 0
*RES
1 *1197:HI uio_oe[6] 22.0467 
*END

*D_NET *588 0.000565788
*CONN
*P uio_oe[7] O
*I *1198:HI O *D sky130_fd_sc_hd__conb_1
*CAP
1 uio_oe[7] 0.000282894
2 *1198:HI 0.000282894
3 uio_oe[6] uio_oe[7] 0
4 *563:9 uio_oe[7] 0
*RES
1 *1198:HI uio_oe[7] 21.9747 
*END

*D_NET *589 0.00458565
*CONN
*P uio_out[0] O
*I *619:Y O *D sky130_fd_sc_hd__clkinv_1
*CAP
1 uio_out[0] 0.00229282
2 *619:Y 0.00229282
3 uio_out[0] uio_out[1] 0
4 uio_out[0] uo_out[5] 0
5 uio_out[0] uo_out[7] 0
6 uio_out[0] *590:31 0
7 uio_out[0] *590:43 0
8 uio_out[0] *594:22 0
9 *726:B uio_out[0] 0
10 *1080:B uio_out[0] 0
11 *203:5 uio_out[0] 0
12 *556:14 uio_out[0] 0
13 *565:17 uio_out[0] 0
14 *567:12 uio_out[0] 0
15 *567:17 uio_out[0] 0
16 *570:14 uio_out[0] 0
*RES
1 *619:Y uio_out[0] 35.5492 
*END

*D_NET *590 0.00563983
*CONN
*P uio_out[1] O
*I *724:A I *D sky130_fd_sc_hd__and2_0
*I *725:A I *D sky130_fd_sc_hd__nand2_1
*I *1055:A1 I *D sky130_fd_sc_hd__a21o_1
*I *1057:A I *D sky130_fd_sc_hd__nand2_1
*I *1183:Q O *D sky130_fd_sc_hd__dfxtp_1
*CAP
1 uio_out[1] 0.000918177
2 *724:A 8.17123e-05
3 *725:A 3.50807e-05
4 *1055:A1 0.000250664
5 *1057:A 3.2228e-05
6 *1183:Q 0
7 *590:43 0.000277223
8 *590:31 0.00115335
9 *590:7 0.00154977
10 *590:4 0.00134162
11 uio_out[1] uio_out[2] 0
12 uio_out[1] uo_out[5] 0
13 uio_out[1] *594:22 0
14 uio_out[0] uio_out[1] 0
15 uio_out[0] *590:31 0
16 uio_out[0] *590:43 0
17 *616:A *590:31 0
18 *618:B *1055:A1 0
19 *619:A *724:A 0
20 *627:B uio_out[1] 0
21 *634:A *590:7 0
22 *635:C uio_out[1] 0
23 *725:B *1055:A1 0
24 *726:B *590:43 0
25 *728:A *1055:A1 0
26 *1055:B1 *1055:A1 0
27 *1178:D *1055:A1 0
28 *1183:D *590:7 0
29 *124:15 *590:7 0
30 *124:15 *590:31 0
31 *203:5 *724:A 0
32 *203:5 *590:43 0
33 *203:16 *1055:A1 0
34 *204:11 *1055:A1 0
35 *204:11 *590:31 0
36 *204:11 *590:43 0
37 *556:40 uio_out[1] 0
38 *556:40 *1057:A 0
39 *558:46 *590:7 0
40 *565:24 *590:31 0
41 *565:26 *590:31 0
42 *567:17 *1057:A 0
43 *567:21 *1057:A 0
*RES
1 *1183:Q *590:4 9.3 
2 *590:4 *590:7 16.9464 
3 *590:7 *1057:A 14.5321 
4 *590:7 uio_out[1] 11.482 
5 *590:4 *590:31 15.5536 
6 *590:31 *1055:A1 23.8357 
7 *590:31 *590:43 3.41071 
8 *590:43 *725:A 10.0321 
9 *590:43 *724:A 11.0679 
*END

*D_NET *591 0.00539854
*CONN
*P uio_out[2] O
*I *726:A I *D sky130_fd_sc_hd__nand2_1
*I *1060:B1 I *D sky130_fd_sc_hd__a21oi_1
*I *1184:Q O *D sky130_fd_sc_hd__dfxtp_1
*CAP
1 uio_out[2] 0.00169689
2 *726:A 0.000308155
3 *1060:B1 3.88545e-05
4 *1184:Q 0
5 *591:9 0.00239112
6 *591:4 0.000963525
7 uio_out[2] uio_out[3] 0
8 uio_out[2] uo_out[3] 0
9 uio_out[2] uo_out[5] 0
10 uio_out[2] uo_out[7] 0
11 *591:9 uio_out[4] 0
12 uio_out[1] uio_out[2] 0
13 *618:B *726:A 0
14 *635:C uio_out[2] 0
15 *643:A3 uio_out[2] 0
16 *725:B *726:A 0
17 *728:A *726:A 0
18 *1063:B *1060:B1 0
19 *1190:D *591:9 0
20 *204:11 *591:9 0
21 *454:10 uio_out[2] 0
22 *454:10 *591:9 0
23 *558:39 uio_out[2] 0
24 *572:11 *591:9 0
*RES
1 *1184:Q *591:4 9.3 
2 *591:4 *591:9 10.7714 
3 *591:9 uio_out[2] 9.7268 
4 *591:9 *1060:B1 18.0939 
5 *591:4 *726:A 24.8893 
*END

*D_NET *592 0.00237214
*CONN
*P uio_out[3] O
*I *644:SLEEP I *D sky130_fd_sc_hd__lpflow_isobufsrc_1
*I *1079:A1 I *D sky130_fd_sc_hd__a22o_1
*I *1189:Q O *D sky130_fd_sc_hd__dfxtp_1
*CAP
1 uio_out[3] 0.000495566
2 *644:SLEEP 0.000120771
3 *1079:A1 0
4 *1189:Q 0.000416203
5 *592:18 0.000769867
6 *592:8 0.000569733
7 uio_out[3] uio_out[4] 0
8 *644:SLEEP *611:55 0
9 *592:8 *611:55 0
10 uio_out[2] uio_out[3] 0
11 *635:C uio_out[3] 0
12 *635:C *592:18 0
13 *1189:D *592:8 0
14 *127:20 *592:8 0
15 *556:45 *592:8 0
16 *557:18 *644:SLEEP 0
17 *558:39 uio_out[3] 0
18 *558:39 *592:18 0
*RES
1 *1189:Q *592:8 22.8536 
2 *592:8 *1079:A1 13.8 
3 *592:8 *592:18 4.23825 
4 *592:18 uio_out[3] 5.31507 
5 *592:18 *644:SLEEP 20.2189 
*END

*D_NET *593 0.00464833
*CONN
*P uio_out[4] O
*I *617:X O *D sky130_fd_sc_hd__lpflow_isobufsrc_1
*CAP
1 uio_out[4] 0.00232417
2 *617:X 0.00232417
3 uio_out[4] uio_out[5] 0
4 uio_out[4] uio_out[6] 0
5 uio_out[4] uo_out[0] 0
6 uio_out[3] uio_out[4] 0
7 *709:B2 uio_out[4] 0
8 *1065:A2 uio_out[4] 0
9 *454:10 uio_out[4] 0
10 *547:47 uio_out[4] 0
11 *591:9 uio_out[4] 0
*RES
1 *617:X uio_out[4] 23.918 
*END

*D_NET *594 0.00523246
*CONN
*P uio_out[5] O
*I *628:A I *D sky130_fd_sc_hd__lpflow_isobufsrc_1
*I *1061:A I *D sky130_fd_sc_hd__nand2_1
*I *616:X O *D sky130_fd_sc_hd__lpflow_isobufsrc_1
*CAP
1 uio_out[5] 0.00041293
2 *628:A 0.000332859
3 *1061:A 6.58832e-05
4 *616:X 0.000308889
5 *594:22 0.00224146
6 *594:8 0.00187044
7 uio_out[5] uio_out[6] 0
8 *628:A *611:46 0
9 uio_out[0] *594:22 0
10 uio_out[1] *594:22 0
11 uio_out[4] uio_out[5] 0
12 *635:C uio_out[5] 0
13 *635:C *594:22 0
14 *642:A *628:A 0
15 *643:A2 uio_out[5] 0
16 *643:A2 *628:A 0
17 *1061:B *594:8 0
18 *1063:B *594:8 0
19 *124:15 *594:8 0
20 *556:33 *1061:A 0
*RES
1 *616:X *594:8 20.4786 
2 *594:8 *1061:A 15.175 
3 *594:8 *594:22 11.135 
4 *594:22 uio_out[5] 4.92967 
5 *594:22 *628:A 24.7725 
*END

*D_NET *595 0.00069752
*CONN
*P uio_out[6] O
*I *1199:LO O *D sky130_fd_sc_hd__conb_1
*CAP
1 uio_out[6] 0.00034876
2 *1199:LO 0.00034876
3 uio_out[6] uio_out[7] 0
4 uio_out[4] uio_out[6] 0
5 uio_out[5] uio_out[6] 0
6 *635:C uio_out[6] 0
7 *558:39 uio_out[6] 0
*RES
1 *1199:LO uio_out[6] 22.2253 
*END

*D_NET *596 0.000855169
*CONN
*P uio_out[7] O
*I *1200:LO O *D sky130_fd_sc_hd__conb_1
*CAP
1 uio_out[7] 0.000427584
2 *1200:LO 0.000427584
3 uio_oe[0] uio_out[7] 0
4 uio_oe[1] uio_out[7] 0
5 uio_out[6] uio_out[7] 0
6 *635:C uio_out[7] 0
7 *127:32 uio_out[7] 0
8 *558:39 uio_out[7] 0
9 *563:9 uio_out[7] 0
*RES
1 *1200:LO uio_out[7] 23.0455 
*END

*D_NET *597 0.00401933
*CONN
*P uo_out[0] O
*I *669:X O *D sky130_fd_sc_hd__o21a_1
*CAP
1 uo_out[0] 0.00200967
2 *669:X 0.00200967
3 uo_out[0] uo_out[1] 0
4 uo_out[0] *607:82 0
5 uio_out[4] uo_out[0] 0
6 *697:A1 uo_out[0] 0
7 *979:A uo_out[0] 0
8 *137:22 uo_out[0] 0
9 *239:22 uo_out[0] 0
10 *246:31 uo_out[0] 0
11 *454:10 uo_out[0] 0
12 *567:12 uo_out[0] 0
*RES
1 *669:X uo_out[0] 36.5216 
*END

*D_NET *598 0.00346966
*CONN
*P uo_out[1] O
*I *676:X O *D sky130_fd_sc_hd__o21a_1
*CAP
1 uo_out[1] 0.00173483
2 *676:X 0.00173483
3 uo_out[1] uo_out[2] 0
4 uo_out[0] uo_out[1] 0
5 *1012:A1 uo_out[1] 0
6 *239:22 uo_out[1] 0
*RES
1 *676:X uo_out[1] 27.9061 
*END

*D_NET *599 0.00369051
*CONN
*P uo_out[2] O
*I *684:X O *D sky130_fd_sc_hd__o21a_1
*CAP
1 uo_out[2] 0.00184525
2 *684:X 0.00184525
3 uo_out[2] uo_out[3] 0
4 uo_out[2] uo_out[4] 0
5 uo_out[1] uo_out[2] 0
6 *714:A uo_out[2] 0
7 *872:A uo_out[2] 0
8 *145:21 uo_out[2] 0
9 *189:22 uo_out[2] 0
*RES
1 *684:X uo_out[2] 28.3667 
*END

*D_NET *600 0.00375811
*CONN
*P uo_out[3] O
*I *691:X O *D sky130_fd_sc_hd__o21a_1
*CAP
1 uo_out[3] 0.00187905
2 *691:X 0.00187905
3 uo_out[3] uo_out[4] 0
4 uo_out[3] uo_out[5] 0
5 uo_out[3] uo_out[6] 0
6 uo_out[3] *607:11 0
7 uio_out[2] uo_out[3] 0
8 uo_out[2] uo_out[3] 0
9 *1012:A1 uo_out[3] 0
10 *149:15 uo_out[3] 0
*RES
1 *691:X uo_out[3] 35.2525 
*END

*D_NET *601 0.00391145
*CONN
*P uo_out[4] O
*I *699:X O *D sky130_fd_sc_hd__o21a_1
*CAP
1 uo_out[4] 0.00195572
2 *699:X 0.00195572
3 uo_out[4] uo_out[5] 0
4 uo_out[4] uo_out[6] 0
5 uo_out[2] uo_out[4] 0
6 uo_out[3] uo_out[4] 0
7 *690:D uo_out[4] 0
8 *189:22 uo_out[4] 0
9 *512:31 uo_out[4] 0
*RES
1 *699:X uo_out[4] 28.8273 
*END

*D_NET *602 0.00189575
*CONN
*P uo_out[5] O
*I *708:X O *D sky130_fd_sc_hd__o21a_1
*CAP
1 uo_out[5] 0.000947873
2 *708:X 0.000947873
3 uo_out[5] uo_out[6] 0
4 uio_out[0] uo_out[5] 0
5 uio_out[1] uo_out[5] 0
6 uio_out[2] uo_out[5] 0
7 uo_out[3] uo_out[5] 0
8 uo_out[4] uo_out[5] 0
9 *635:C uo_out[5] 0
10 *640:A uo_out[5] 0
11 *640:B uo_out[5] 0
12 *1058:B1 uo_out[5] 0
13 *1504:A uo_out[5] 0
14 *119:13 uo_out[5] 0
15 *567:17 uo_out[5] 0
16 *567:27 uo_out[5] 0
*RES
1 *708:X uo_out[5] 31.5525 
*END

*D_NET *603 0.00314549
*CONN
*P uo_out[6] O
*I *715:X O *D sky130_fd_sc_hd__o21a_1
*CAP
1 uo_out[6] 0.00157274
2 *715:X 0.00157274
3 uo_out[6] uo_out[7] 0
4 uo_out[3] uo_out[6] 0
5 uo_out[4] uo_out[6] 0
6 uo_out[5] uo_out[6] 0
7 *686:A1 uo_out[6] 0
8 *721:B2 uo_out[6] 0
9 *1163:D uo_out[6] 0
*RES
1 *715:X uo_out[6] 28.7192 
*END

*D_NET *604 0.00393441
*CONN
*P uo_out[7] O
*I *723:X O *D sky130_fd_sc_hd__o21a_1
*CAP
1 uo_out[7] 0.0019672
2 *723:X 0.0019672
3 uio_out[0] uo_out[7] 0
4 uio_out[2] uo_out[7] 0
5 uo_out[6] uo_out[7] 0
6 *678:C2 uo_out[7] 0
7 *736:A uo_out[7] 0
8 *532:35 uo_out[7] 0
9 *537:12 uo_out[7] 0
*RES
1 *723:X uo_out[7] 28.8617 
*END

*D_NET *607 0.0151891
*CONN
*I *1512:A I *D sky130_fd_sc_hd__clkbuf_16
*I *1511:A I *D sky130_fd_sc_hd__clkbuf_16
*I *1510:A I *D sky130_fd_sc_hd__clkbuf_16
*I *1509:A I *D sky130_fd_sc_hd__clkbuf_16
*I *1508:A I *D sky130_fd_sc_hd__clkbuf_16
*I *1507:A I *D sky130_fd_sc_hd__clkbuf_16
*I *1505:A I *D sky130_fd_sc_hd__clkbuf_16
*I *1506:A I *D sky130_fd_sc_hd__clkbuf_16
*I *1504:X O *D sky130_fd_sc_hd__clkbuf_16
*CAP
1 *1512:A 0.000557013
2 *1511:A 0
3 *1510:A 0.000520648
4 *1509:A 0
5 *1508:A 0.000660397
6 *1507:A 4.92646e-05
7 *1505:A 0.000183104
8 *1506:A 0.000363128
9 *1504:X 1.21715e-05
10 *607:82 0.00112583
11 *607:63 0.00159008
12 *607:54 0.00203273
13 *607:32 0.000768061
14 *607:12 0.00172115
15 *607:11 0.00321611
16 *607:8 0.00238945
17 *1505:A *608:10 0
18 *1506:A *1141:CLK 0
19 *1508:A *1165:CLK 0
20 *1510:A *612:36 0
21 *1512:A *614:7 0
22 *607:12 *1141:CLK 0
23 *607:12 *1147:CLK 0
24 *607:12 *1149:CLK 0
25 uo_out[0] *607:82 0
26 uo_out[3] *607:11 0
27 *652:B *607:82 0
28 *673:C1 *607:63 0
29 *681:C2 *607:63 0
30 *686:A1 *1508:A 0
31 *687:A1 *607:82 0
32 *696:C2 *607:11 0
33 *717:B2 *607:63 0
34 *720:B2 *607:63 0
35 *721:C2 *607:82 0
36 *872:A *607:11 0
37 *872:A *607:54 0
38 *1012:A1 *607:11 0
39 *1120:RESET_B *1508:A 0
40 *1131:RESET_B *607:12 0
41 *1141:RESET_B *1506:A 0
42 *1146:D *607:11 0
43 *1149:D *607:12 0
44 *1154:RESET_B *607:12 0
45 *51:17 *1508:A 0
46 *55:20 *607:12 0
47 *65:14 *1506:A 0
48 *81:8 *607:12 0
49 *85:16 *607:63 0
50 *92:10 *1506:A 0
51 *92:10 *607:12 0
52 *135:9 *1512:A 0
53 *239:22 *607:11 0
54 *239:22 *607:54 0
55 *455:75 *607:12 0
56 *455:77 *607:12 0
57 *455:79 *607:12 0
58 *455:208 *607:12 0
59 *455:263 *1508:A 0
60 *455:272 *1508:A 0
61 *455:725 *1506:A 0
62 *455:725 *607:12 0
63 *455:745 *607:12 0
64 *456:16 *607:12 0
65 *482:37 *607:63 0
66 *506:47 *607:12 0
67 *514:33 *1508:A 0
68 *516:18 *1508:A 0
69 *516:18 *607:12 0
70 *516:38 *607:11 0
71 *517:8 *607:12 0
72 *520:12 *607:12 0
73 *529:12 *1508:A 0
74 *529:12 *607:12 0
75 *529:12 *607:32 0
76 *532:10 *1508:A 0
77 *533:20 *607:82 0
78 *547:47 *607:82 0
79 *549:8 *1508:A 0
*RES
1 *1504:X *607:8 17.4868 
2 *607:8 *607:11 10.5916 
3 *607:11 *607:12 26.6875 
4 *607:12 *1506:A 21.7821 
5 *607:12 *1505:A 17.6214 
6 *607:11 *607:32 1.41964 
7 *607:32 *1507:A 14.8714 
8 *607:32 *1508:A 28.7286 
9 *607:8 *607:54 4.8623 
10 *607:54 *607:63 16.1507 
11 *607:63 *1509:A 9.3 
12 *607:63 *1510:A 20.1036 
13 *607:54 *607:82 14.1266 
14 *607:82 *1511:A 9.3 
15 *607:82 *1512:A 20.925 
*END

*D_NET *608 0.00903951
*CONN
*I *1141:CLK I *D sky130_fd_sc_hd__dfrtp_1
*I *1131:CLK I *D sky130_fd_sc_hd__dfrtp_1
*I *1145:CLK I *D sky130_fd_sc_hd__dfrtp_1
*I *1169:CLK I *D sky130_fd_sc_hd__dfrtp_1
*I *1156:CLK I *D sky130_fd_sc_hd__dfrtp_1
*I *1147:CLK I *D sky130_fd_sc_hd__dfrtp_1
*I *1149:CLK I *D sky130_fd_sc_hd__dfrtp_1
*I *1155:CLK I *D sky130_fd_sc_hd__dfrtp_1
*I *1166:CLK I *D sky130_fd_sc_hd__dfrtp_1
*I *1129:CLK I *D sky130_fd_sc_hd__dfrtp_1
*I *1132:CLK I *D sky130_fd_sc_hd__dfrtp_1
*I *1144:CLK I *D sky130_fd_sc_hd__dfrtp_1
*I *1143:CLK I *D sky130_fd_sc_hd__dfrtp_1
*I *1142:CLK I *D sky130_fd_sc_hd__dfrtp_1
*I *1134:CLK I *D sky130_fd_sc_hd__dfrtp_1
*I *1167:CLK I *D sky130_fd_sc_hd__dfrtp_1
*I *1135:CLK I *D sky130_fd_sc_hd__dfrtp_1
*I *1133:CLK I *D sky130_fd_sc_hd__dfrtp_1
*I *1168:CLK I *D sky130_fd_sc_hd__dfrtp_1
*I *1505:X O *D sky130_fd_sc_hd__clkbuf_16
*CAP
1 *1141:CLK 0.000164865
2 *1131:CLK 0.000180109
3 *1145:CLK 0
4 *1169:CLK 0.000298186
5 *1156:CLK 0
6 *1147:CLK 0.00020345
7 *1149:CLK 0.000184626
8 *1155:CLK 0
9 *1166:CLK 0.000110979
10 *1129:CLK 0
11 *1132:CLK 0
12 *1144:CLK 2.56688e-05
13 *1143:CLK 2.56688e-05
14 *1142:CLK 0
15 *1134:CLK 2.56688e-05
16 *1167:CLK 0.000112474
17 *1135:CLK 2.35958e-05
18 *1133:CLK 4.9825e-05
19 *1168:CLK 0.000124066
20 *1505:X 0.000121071
21 *608:134 0.000469788
22 *608:126 0.00032086
23 *608:116 0.000602118
24 *608:106 0.000560353
25 *608:102 0.000417925
26 *608:97 0.000590853
27 *608:92 0.000294044
28 *608:81 0.000249043
29 *608:46 0.000248464
30 *608:44 0.00031223
31 *608:31 0.000308268
32 *608:29 0.00019675
33 *608:27 0.000250537
34 *608:26 0.000224829
35 *608:24 0.00030118
36 *608:22 0.000643754
37 *608:10 0.000699429
38 *608:5 0.000698835
39 *748:B *608:81 0
40 *748:B *608:92 0
41 *971:A *608:116 0
42 *990:A *608:106 0
43 *1132:D *608:97 0
44 *1143:D *608:29 0
45 *1143:D *608:31 0
46 *1143:RESET_B *608:22 0
47 *1145:D *608:27 0
48 *1155:D *1149:CLK 0
49 *1156:D *608:106 0
50 *1166:RESET_B *1147:CLK 0
51 *1505:A *608:10 0
52 *1506:A *1141:CLK 0
53 *58:11 *1134:CLK 0
54 *68:16 *1143:CLK 0
55 *68:16 *608:27 0
56 *68:16 *608:81 0
57 *92:10 *1141:CLK 0
58 *93:13 *1169:CLK 0
59 *93:13 *608:22 0
60 *455:103 *1147:CLK 0
61 *455:120 *1166:CLK 0
62 *455:122 *608:106 0
63 *455:128 *608:102 0
64 *455:128 *608:106 0
65 *455:132 *608:22 0
66 *455:144 *608:10 0
67 *455:144 *608:22 0
68 *455:715 *608:5 0
69 *456:66 *1149:CLK 0
70 *465:11 *1131:CLK 0
71 *465:11 *608:24 0
72 *504:15 *1131:CLK 0
73 *504:15 *608:24 0
74 *506:5 *608:106 0
75 *515:9 *1149:CLK 0
76 *517:8 *1147:CLK 0
77 *517:11 *608:116 0
78 *517:11 *608:126 0
79 *517:11 *608:134 0
80 *526:13 *1147:CLK 0
81 *530:54 *608:92 0
82 *530:54 *608:106 0
83 *607:12 *1141:CLK 0
84 *607:12 *1147:CLK 0
85 *607:12 *1149:CLK 0
*RES
1 *1505:X *608:5 11.8893 
2 *608:5 *608:10 13.25 
3 *608:10 *1168:CLK 16.3893 
4 *608:10 *608:22 8.08929 
5 *608:22 *608:24 6.28571 
6 *608:24 *608:26 4.5 
7 *608:26 *608:27 2.55357 
8 *608:27 *608:29 2.55357 
9 *608:29 *608:31 1.94643 
10 *608:31 *1133:CLK 15.0679 
11 *608:31 *608:44 4.10714 
12 *608:44 *608:46 2.55357 
13 *608:46 *1135:CLK 14.3357 
14 *608:46 *1167:CLK 16.3536 
15 *608:44 *1134:CLK 14.3357 
16 *608:29 *1142:CLK 13.8 
17 *608:27 *1143:CLK 14.3357 
18 *608:26 *608:81 2.55357 
19 *608:81 *1144:CLK 14.3357 
20 *608:81 *608:92 7.05357 
21 *608:92 *1132:CLK 9.3 
22 *608:92 *608:97 3.82143 
23 *608:97 *608:102 11.5536 
24 *608:102 *608:106 11.25 
25 *608:106 *1129:CLK 13.8 
26 *608:106 *608:116 10.0536 
27 *608:116 *1166:CLK 20.8536 
28 *608:116 *608:126 5.05357 
29 *608:126 *1155:CLK 9.3 
30 *608:126 *608:134 6.26786 
31 *608:134 *1149:CLK 17.8357 
32 *608:134 *1147:CLK 18.2286 
33 *608:102 *1156:CLK 9.3 
34 *608:97 *1169:CLK 15.5857 
35 *608:24 *1145:CLK 9.3 
36 *608:22 *1131:CLK 13.1214 
37 *608:5 *1141:CLK 21.9964 
*END

*D_NET *609 0.00808417
*CONN
*I *1173:CLK I *D sky130_fd_sc_hd__dfrtp_1
*I *1171:CLK I *D sky130_fd_sc_hd__dfrtp_1
*I *1159:CLK I *D sky130_fd_sc_hd__dfrtp_1
*I *1172:CLK I *D sky130_fd_sc_hd__dfrtp_1
*I *1136:CLK I *D sky130_fd_sc_hd__dfrtp_1
*I *1130:CLK I *D sky130_fd_sc_hd__dfrtp_1
*I *1157:CLK I *D sky130_fd_sc_hd__dfrtp_1
*I *1154:CLK I *D sky130_fd_sc_hd__dfrtp_1
*I *1137:CLK I *D sky130_fd_sc_hd__dfrtp_1
*I *1140:CLK I *D sky130_fd_sc_hd__dfrtp_1
*I *1139:CLK I *D sky130_fd_sc_hd__dfrtp_1
*I *1170:CLK I *D sky130_fd_sc_hd__dfrtp_1
*I *1138:CLK I *D sky130_fd_sc_hd__dfrtp_1
*I *1506:X O *D sky130_fd_sc_hd__clkbuf_16
*CAP
1 *1173:CLK 0.000379359
2 *1171:CLK 0.000139215
3 *1159:CLK 3.50807e-05
4 *1172:CLK 9.87093e-05
5 *1136:CLK 3.50807e-05
6 *1130:CLK 0.000646315
7 *1157:CLK 0
8 *1154:CLK 0.000472253
9 *1137:CLK 6.50276e-05
10 *1140:CLK 0.000163425
11 *1139:CLK 6.50276e-05
12 *1170:CLK 0.000112454
13 *1138:CLK 0
14 *1506:X 2.56688e-05
15 *609:121 0.000738042
16 *609:111 0.000277223
17 *609:97 0.000695081
18 *609:61 0.000553965
19 *609:60 0.000944519
20 *609:49 0.000391063
21 *609:40 0.000382689
22 *609:31 0.000345187
23 *609:26 0.000287231
24 *609:25 0.000791852
25 *609:15 0.000331465
26 *609:5 0.000108237
27 *688:A1 *1173:CLK 0
28 *1136:D *1170:CLK 0
29 *1136:D *609:25 0
30 *1136:RESET_B *609:25 0
31 *1136:RESET_B *609:26 0
32 *1136:RESET_B *609:97 0
33 *1137:D *1137:CLK 0
34 *1137:D *609:31 0
35 *1137:D *609:40 0
36 *1137:D *609:49 0
37 *1137:RESET_B *609:49 0
38 *1138:D *1170:CLK 0
39 *1140:RESET_B *1140:CLK 0
40 *1154:D *1154:CLK 0
41 *1157:D *1154:CLK 0
42 *1157:RESET_B *1130:CLK 0
43 *1157:RESET_B *609:61 0
44 *1159:D *1171:CLK 0
45 *1159:D *609:121 0
46 *1159:RESET_B *609:121 0
47 *1172:D *1171:CLK 0
48 *1172:D *1173:CLK 0
49 *54:24 *1130:CLK 0
50 *64:17 *1170:CLK 0
51 *64:17 *609:25 0
52 *455:680 *1172:CLK 0
53 *455:680 *1173:CLK 0
54 *455:682 *1172:CLK 0
55 *455:715 *1139:CLK 0
56 *455:771 *609:31 0
57 *455:771 *609:40 0
58 *455:771 *609:49 0
59 *469:7 *609:97 0
60 *515:8 *1130:CLK 0
61 *518:49 *1172:CLK 0
62 *523:11 *1171:CLK 0
63 *523:11 *1173:CLK 0
64 *530:6 *1154:CLK 0
65 *535:8 *1130:CLK 0
*RES
1 *1506:X *609:5 9.83571 
2 *609:5 *1138:CLK 9.3 
3 *609:5 *609:15 6.28571 
4 *609:15 *1170:CLK 16.3536 
5 *609:15 *609:25 7.66071 
6 *609:25 *609:26 1.76786 
7 *609:26 *609:31 8.21429 
8 *609:31 *1139:CLK 15.1571 
9 *609:31 *609:40 2.55357 
10 *609:40 *1140:CLK 17.2107 
11 *609:40 *609:49 2.55357 
12 *609:49 *1137:CLK 15.1571 
13 *609:49 *609:60 9.48214 
14 *609:60 *609:61 1.76786 
15 *609:61 *1154:CLK 28.3179 
16 *609:61 *1157:CLK 9.3 
17 *609:60 *1130:CLK 32.8536 
18 *609:26 *1136:CLK 10.0321 
19 *609:25 *609:97 12.0357 
20 *609:97 *1172:CLK 20.6036 
21 *609:97 *609:111 0.535714 
22 *609:111 *1159:CLK 10.0321 
23 *609:111 *609:121 9.14286 
24 *609:121 *1171:CLK 16.9607 
25 *609:121 *1173:CLK 22.1036 
*END

*D_NET *610 0.00918946
*CONN
*I *1126:CLK I *D sky130_fd_sc_hd__dfrtp_1
*I *1165:CLK I *D sky130_fd_sc_hd__dfrtp_1
*I *1146:CLK I *D sky130_fd_sc_hd__dfrtp_1
*I *1150:CLK I *D sky130_fd_sc_hd__dfrtp_1
*I *1148:CLK I *D sky130_fd_sc_hd__dfrtp_1
*I *1124:CLK I *D sky130_fd_sc_hd__dfrtp_1
*I *1187:CLK I *D sky130_fd_sc_hd__dfxtp_1
*I *1185:CLK I *D sky130_fd_sc_hd__dfxtp_1
*I *1180:CLK I *D sky130_fd_sc_hd__dfxtp_1
*I *1186:CLK I *D sky130_fd_sc_hd__dfxtp_1
*I *1188:CLK I *D sky130_fd_sc_hd__dfxtp_1
*I *1121:CLK I *D sky130_fd_sc_hd__dfrtp_1
*I *1125:CLK I *D sky130_fd_sc_hd__dfrtp_1
*I *1120:CLK I *D sky130_fd_sc_hd__dfrtp_1
*I *1164:CLK I *D sky130_fd_sc_hd__dfrtp_1
*I *1151:CLK I *D sky130_fd_sc_hd__dfrtp_1
*I *1507:X O *D sky130_fd_sc_hd__clkbuf_16
*CAP
1 *1126:CLK 0
2 *1165:CLK 0.000494557
3 *1146:CLK 0
4 *1150:CLK 0
5 *1148:CLK 0
6 *1124:CLK 0
7 *1187:CLK 0.000340753
8 *1185:CLK 2.41714e-05
9 *1180:CLK 0
10 *1186:CLK 0.000143745
11 *1188:CLK 2.56688e-05
12 *1121:CLK 0.000202783
13 *1125:CLK 6.50276e-05
14 *1120:CLK 0.000104386
15 *1164:CLK 6.50276e-05
16 *1151:CLK 0
17 *1507:X 0
18 *610:137 0.000829688
19 *610:125 0.00040468
20 *610:96 0.000594827
21 *610:87 0.000339623
22 *610:78 0.000352529
23 *610:69 0.000250537
24 *610:60 0.000439548
25 *610:57 0.000372031
26 *610:45 0.000451747
27 *610:36 0.000329038
28 *610:27 0.000503655
29 *610:20 0.00064501
30 *610:16 0.000684457
31 *610:9 0.000917745
32 *610:5 0.000608224
33 uio_oe[3] *610:96 0
34 *635:A *610:96 0
35 *1014:A *1164:CLK 0
36 *1016:A *610:27 0
37 *1017:A *1165:CLK 0
38 *1018:A1 *610:27 0
39 *1019:A *610:20 0
40 *1120:D *610:45 0
41 *1122:D *610:57 0
42 *1125:D *1125:CLK 0
43 *1125:D *610:45 0
44 *1146:D *610:9 0
45 *1146:D *610:125 0
46 *1148:D *610:20 0
47 *1150:D *610:9 0
48 *1150:D *610:16 0
49 *1150:RESET_B *610:9 0
50 *1164:D *1164:CLK 0
51 *1164:D *610:36 0
52 *1165:D *1165:CLK 0
53 *1186:D *610:87 0
54 *1186:D *610:96 0
55 *1187:D *1185:CLK 0
56 *1187:D *1187:CLK 0
57 *1508:A *1165:CLK 0
58 *50:9 *1165:CLK 0
59 *50:9 *610:137 0
60 *51:17 *1120:CLK 0
61 *52:12 *610:9 0
62 *108:11 *1188:CLK 0
63 *203:90 *610:27 0
64 *204:533 *610:20 0
65 *204:533 *610:27 0
66 *204:537 *610:20 0
67 *204:545 *610:20 0
68 *455:66 *610:9 0
69 *516:18 *610:137 0
70 *531:41 *610:9 0
71 *531:41 *610:125 0
72 *538:15 *1125:CLK 0
73 *540:14 *610:137 0
74 *549:8 *1165:CLK 0
75 *551:28 *610:57 0
76 *561:17 *1185:CLK 0
77 *561:17 *1187:CLK 0
78 *562:9 *610:87 0
79 *562:9 *610:96 0
80 *564:5 *1188:CLK 0
*RES
1 *1507:X *610:5 13.8 
2 *610:5 *610:9 16 
3 *610:9 *610:16 17.125 
4 *610:16 *610:20 11.25 
5 *610:20 *1151:CLK 13.8 
6 *610:20 *610:27 7.71429 
7 *610:27 *1164:CLK 15.1571 
8 *610:27 *610:36 2.25 
9 *610:36 *1120:CLK 15.9786 
10 *610:36 *610:45 2.85714 
11 *610:45 *1125:CLK 15.1571 
12 *610:45 *610:57 10.1607 
13 *610:57 *610:60 7.05357 
14 *610:60 *1121:CLK 18.0321 
15 *610:60 *610:69 2.85714 
16 *610:69 *1188:CLK 14.3357 
17 *610:69 *610:78 2.25 
18 *610:78 *1186:CLK 16.8 
19 *610:78 *610:87 2.55357 
20 *610:87 *1180:CLK 13.8 
21 *610:87 *610:96 9.78571 
22 *610:96 *1185:CLK 9.83571 
23 *610:96 *1187:CLK 16.4429 
24 *610:57 *1124:CLK 9.3 
25 *610:16 *1148:CLK 9.3 
26 *610:9 *1150:CLK 9.3 
27 *610:5 *610:125 1.64286 
28 *610:125 *1146:CLK 13.8 
29 *610:125 *610:137 12.0893 
30 *610:137 *1165:CLK 28.9964 
31 *610:137 *1126:CLK 9.3 
*END

*D_NET *611 0.0081463
*CONN
*I *1127:CLK I *D sky130_fd_sc_hd__dfrtp_1
*I *1118:CLK I *D sky130_fd_sc_hd__dfrtp_1
*I *1117:CLK I *D sky130_fd_sc_hd__dfrtp_1
*I *1128:CLK I *D sky130_fd_sc_hd__dfrtp_1
*I *1179:CLK I *D sky130_fd_sc_hd__dfxtp_1
*I *1189:CLK I *D sky130_fd_sc_hd__dfxtp_1
*I *1182:CLK I *D sky130_fd_sc_hd__dfxtp_1
*I *1123:CLK I *D sky130_fd_sc_hd__dfrtp_1
*I *1163:CLK I *D sky130_fd_sc_hd__dfrtp_1
*I *1181:CLK I *D sky130_fd_sc_hd__dfxtp_1
*I *1122:CLK I *D sky130_fd_sc_hd__dfrtp_1
*I *1119:CLK I *D sky130_fd_sc_hd__dfrtp_1
*I *1508:X O *D sky130_fd_sc_hd__clkbuf_16
*CAP
1 *1127:CLK 0
2 *1118:CLK 0.000360219
3 *1117:CLK 2.86635e-05
4 *1128:CLK 0.000507112
5 *1179:CLK 2.94948e-05
6 *1189:CLK 0
7 *1182:CLK 0.000242142
8 *1123:CLK 0
9 *1163:CLK 0.000177422
10 *1181:CLK 0
11 *1122:CLK 0
12 *1119:CLK 0
13 *1508:X 0
14 *611:101 0.000768411
15 *611:99 0.000714019
16 *611:94 0.000222556
17 *611:60 0.000287143
18 *611:58 0.00078231
19 *611:55 0.000947674
20 *611:46 0.000938472
21 *611:39 0.000835869
22 *611:22 0.000687112
23 *611:8 0.00037964
24 *611:4 0.00023804
25 *620:A *611:46 0
26 *625:A *611:46 0
27 *628:A *611:46 0
28 *637:A1 *611:39 0
29 *637:A1 *611:46 0
30 *642:SLEEP *611:55 0
31 *643:A3 *611:46 0
32 *643:B1 *611:46 0
33 *644:SLEEP *611:55 0
34 *671:A1 *1128:CLK 0
35 *671:A1 *611:101 0
36 *704:C1 *1117:CLK 0
37 *1078:B *611:58 0
38 *1117:D *1128:CLK 0
39 *1118:RESET_B *1118:CLK 0
40 *1122:D *611:22 0
41 *1122:D *611:39 0
42 *1123:D *611:60 0
43 *1128:D *1128:CLK 0
44 *1128:RESET_B *1128:CLK 0
45 *1163:D *1163:CLK 0
46 *1179:D *1179:CLK 0
47 *1179:D *611:46 0
48 *1179:D *611:55 0
49 *1181:D *611:46 0
50 *51:17 *611:94 0
51 *119:61 *611:46 0
52 *437:6 *611:58 0
53 *455:10 *1163:CLK 0
54 *455:10 *611:55 0
55 *455:10 *611:58 0
56 *455:10 *611:60 0
57 *455:26 *611:99 0
58 *455:28 *611:101 0
59 *455:37 *1117:CLK 0
60 *455:48 *1128:CLK 0
61 *455:48 *611:101 0
62 *455:50 *1128:CLK 0
63 *455:250 *611:101 0
64 *515:8 *1128:CLK 0
65 *547:8 *611:101 0
66 *556:45 *611:55 0
67 *556:52 *611:46 0
68 *560:10 *1182:CLK 0
69 *560:10 *611:58 0
70 *567:71 *1163:CLK 0
71 *567:71 *611:58 0
72 *567:71 *611:60 0
73 *592:8 *611:55 0
*RES
1 *1508:X *611:4 9.3 
2 *611:4 *611:8 7.58929 
3 *611:8 *1119:CLK 13.8 
4 *611:8 *611:22 9.89286 
5 *611:22 *1122:CLK 9.3 
6 *611:22 *611:39 14.5179 
7 *611:39 *1181:CLK 13.8 
8 *611:39 *611:46 8.92857 
9 *611:46 *611:55 24.4286 
10 *611:55 *611:58 14.3393 
11 *611:58 *611:60 2.55357 
12 *611:60 *1163:CLK 17.7107 
13 *611:60 *1123:CLK 13.8 
14 *611:58 *1182:CLK 18.8536 
15 *611:55 *1189:CLK 9.3 
16 *611:46 *1179:CLK 14.5321 
17 *611:4 *611:94 2.17857 
18 *611:94 *611:99 7.28571 
19 *611:99 *611:101 5.28571 
20 *611:101 *1128:CLK 25.1036 
21 *611:101 *1117:CLK 14.3357 
22 *611:99 *1118:CLK 21.3179 
23 *611:94 *1127:CLK 9.3 
*END

*D_NET *612 0.0072876
*CONN
*I *1105:CLK I *D sky130_fd_sc_hd__dfrtp_1
*I *1161:CLK I *D sky130_fd_sc_hd__dfrtp_1
*I *1102:CLK I *D sky130_fd_sc_hd__dfrtp_1
*I *1106:CLK I *D sky130_fd_sc_hd__dfrtp_1
*I *1160:CLK I *D sky130_fd_sc_hd__dfrtp_1
*I *1101:CLK I *D sky130_fd_sc_hd__dfrtp_1
*I *1174:CLK I *D sky130_fd_sc_hd__dfrtp_1
*I *1158:CLK I *D sky130_fd_sc_hd__dfrtp_1
*I *1175:CLK I *D sky130_fd_sc_hd__dfrtp_1
*I *1107:CLK I *D sky130_fd_sc_hd__dfrtp_1
*I *1093:CLK I *D sky130_fd_sc_hd__dfrtp_1
*I *1103:CLK I *D sky130_fd_sc_hd__dfrtp_1
*I *1509:X O *D sky130_fd_sc_hd__clkbuf_16
*CAP
1 *1105:CLK 0.000200618
2 *1161:CLK 4.53482e-05
3 *1102:CLK 0
4 *1106:CLK 0
5 *1160:CLK 0.000579687
6 *1101:CLK 0.000277223
7 *1174:CLK 6.58832e-05
8 *1158:CLK 0.000479958
9 *1175:CLK 0.00018381
10 *1107:CLK 0
11 *1093:CLK 4.53482e-05
12 *1103:CLK 0.000177501
13 *1509:X 2.56688e-05
14 *612:108 0.000355608
15 *612:93 0.000579687
16 *612:58 0.000709045
17 *612:56 0.000523406
18 *612:54 0.000299667
19 *612:41 0.000659325
20 *612:39 0.000576692
21 *612:36 0.00062303
22 *612:10 0.00033257
23 *612:8 0.000218026
24 *612:5 0.000329497
25 *693:B2 *1175:CLK 0
26 *713:A1 *1105:CLK 0
27 *717:B2 *612:54 0
28 *1101:D *1101:CLK 0
29 *1158:RESET_B *1158:CLK 0
30 *1160:RESET_B *1160:CLK 0
31 *1174:D *1158:CLK 0
32 *1510:A *612:36 0
33 *31:12 *1103:CLK 0
34 *31:12 *612:10 0
35 *85:16 *612:36 0
36 *85:16 *612:54 0
37 *85:16 *612:56 0
38 *85:16 *612:58 0
39 *99:14 *1158:CLK 0
40 *99:14 *1175:CLK 0
41 *99:14 *612:54 0
42 *99:14 *612:56 0
43 *99:14 *612:58 0
44 *455:664 *1160:CLK 0
45 *475:8 *1105:CLK 0
46 *475:8 *612:8 0
47 *475:8 *612:10 0
48 *475:8 *612:36 0
49 *485:7 *612:39 0
50 *485:12 *1103:CLK 0
51 *485:12 *612:8 0
52 *485:12 *612:10 0
53 *485:12 *612:36 0
54 *485:32 *1105:CLK 0
55 *485:32 *612:36 0
56 *485:32 *612:108 0
57 *486:9 *1103:CLK 0
58 *508:11 *1158:CLK 0
59 *510:7 *1160:CLK 0
60 *525:7 *1174:CLK 0
*RES
1 *1509:X *612:5 9.83571 
2 *612:5 *612:8 7.05357 
3 *612:8 *612:10 2.55357 
4 *612:10 *1103:CLK 17.7107 
5 *612:10 *1093:CLK 14.7464 
6 *612:8 *1107:CLK 13.8 
7 *612:5 *612:36 8.82143 
8 *612:36 *612:39 11.1964 
9 *612:39 *612:41 5.46429 
10 *612:41 *1175:CLK 22.3179 
11 *612:41 *612:54 9.48214 
12 *612:54 *612:56 1.94643 
13 *612:56 *612:58 3.76786 
14 *612:58 *1158:CLK 24.05 
15 *612:58 *1174:CLK 15.175 
16 *612:56 *1101:CLK 19.5857 
17 *612:54 *612:93 4.5 
18 *612:93 *1160:CLK 21.3357 
19 *612:93 *1106:CLK 9.3 
20 *612:39 *1102:CLK 9.3 
21 *612:36 *612:108 2.55357 
22 *612:108 *1161:CLK 14.7464 
23 *612:108 *1105:CLK 18.2286 
*END

*D_NET *613 0.00849707
*CONN
*I *1104:CLK I *D sky130_fd_sc_hd__dfrtp_1
*I *1110:CLK I *D sky130_fd_sc_hd__dfrtp_1
*I *1113:CLK I *D sky130_fd_sc_hd__dfrtp_1
*I *1098:CLK I *D sky130_fd_sc_hd__dfrtp_1
*I *1162:CLK I *D sky130_fd_sc_hd__dfrtp_1
*I *1108:CLK I *D sky130_fd_sc_hd__dfrtp_1
*I *1112:CLK I *D sky130_fd_sc_hd__dfrtp_1
*I *1109:CLK I *D sky130_fd_sc_hd__dfrtp_1
*I *1092:CLK I *D sky130_fd_sc_hd__dfrtp_1
*I *1096:CLK I *D sky130_fd_sc_hd__dfrtp_1
*I *1095:CLK I *D sky130_fd_sc_hd__dfrtp_1
*I *1099:CLK I *D sky130_fd_sc_hd__dfrtp_1
*I *1111:CLK I *D sky130_fd_sc_hd__dfrtp_1
*I *1176:CLK I *D sky130_fd_sc_hd__dfrtp_1
*I *1100:CLK I *D sky130_fd_sc_hd__dfrtp_1
*I *1094:CLK I *D sky130_fd_sc_hd__dfrtp_1
*I *1510:X O *D sky130_fd_sc_hd__clkbuf_16
*CAP
1 *1104:CLK 0
2 *1110:CLK 2.26741e-05
3 *1113:CLK 0.00026184
4 *1098:CLK 6.20329e-05
5 *1162:CLK 0.000267755
6 *1108:CLK 9.90435e-05
7 *1112:CLK 0.00030118
8 *1109:CLK 0
9 *1092:CLK 6.50276e-05
10 *1096:CLK 2.56688e-05
11 *1095:CLK 2.56688e-05
12 *1099:CLK 0.000163425
13 *1111:CLK 2.56688e-05
14 *1176:CLK 0.000393975
15 *1100:CLK 0
16 *1094:CLK 0.000112474
17 *1510:X 2.41714e-05
18 *613:116 0.000707337
19 *613:113 0.000402572
20 *613:111 0.000374215
21 *613:102 0.000549546
22 *613:91 0.000510168
23 *613:87 0.000493122
24 *613:76 0.000284351
25 *613:67 0.000245071
26 *613:35 0.000532117
27 *613:33 0.000372248
28 *613:31 0.00024511
29 *613:30 0.000399551
30 *613:22 0.000619045
31 *613:12 0.000719628
32 *613:5 0.00019239
33 *818:A *613:91 0
34 *818:A *613:102 0
35 *818:A *613:111 0
36 *1100:D *613:30 0
37 *1108:D *1094:CLK 0
38 *1108:D *613:12 0
39 *1110:D *613:76 0
40 *1110:D *613:87 0
41 *1112:RESET_B *1112:CLK 0
42 *1162:D *1162:CLK 0
43 *1162:RESET_B *1113:CLK 0
44 *1162:RESET_B *613:111 0
45 *1176:D *1176:CLK 0
46 *1176:RESET_B *1176:CLK 0
47 *1176:RESET_B *613:35 0
48 *16:11 *613:76 0
49 *240:6 *1094:CLK 0
50 *240:6 *1108:CLK 0
51 *240:6 *1162:CLK 0
52 *240:6 *613:12 0
53 *455:457 *1113:CLK 0
54 *455:466 *1110:CLK 0
55 *455:466 *613:91 0
56 *455:477 *613:31 0
57 *455:477 *613:67 0
58 *455:477 *613:76 0
59 *455:479 *613:31 0
60 *455:481 *613:31 0
61 *455:481 *613:33 0
62 *455:481 *613:35 0
63 *455:483 *613:35 0
64 *455:553 *613:102 0
65 *455:851 *613:102 0
66 *455:851 *613:111 0
67 *476:20 *1108:CLK 0
68 *476:20 *1162:CLK 0
69 *476:20 *613:91 0
70 *476:20 *613:116 0
71 *481:7 *1099:CLK 0
72 *481:8 *1176:CLK 0
73 *481:8 *613:35 0
74 *481:37 *1112:CLK 0
75 *481:37 *613:31 0
76 *481:37 *613:33 0
77 *481:37 *613:35 0
78 *481:37 *613:67 0
79 *481:37 *613:76 0
80 *481:37 *613:87 0
81 *482:12 *1176:CLK 0
82 *491:9 *613:111 0
83 *503:29 *1113:CLK 0
84 *512:8 *1162:CLK 0
85 *528:7 *1176:CLK 0
*RES
1 *1510:X *613:5 9.83571 
2 *613:5 *613:12 8.23214 
3 *613:12 *1094:CLK 16.3536 
4 *613:12 *613:22 13.6607 
5 *613:22 *1100:CLK 9.3 
6 *613:22 *613:30 8.32143 
7 *613:30 *613:31 2.85714 
8 *613:31 *613:33 2.25 
9 *613:33 *613:35 2.55357 
10 *613:35 *1176:CLK 22.2286 
11 *613:35 *1111:CLK 14.3357 
12 *613:33 *1099:CLK 17.2107 
13 *613:31 *1095:CLK 14.3357 
14 *613:30 *613:67 2.25 
15 *613:67 *1096:CLK 14.3357 
16 *613:67 *613:76 2.85714 
17 *613:76 *1092:CLK 15.1571 
18 *613:76 *613:87 6.75 
19 *613:87 *613:91 12.5179 
20 *613:91 *1109:CLK 13.8 
21 *613:91 *613:102 3.21429 
22 *613:102 *1112:CLK 20.0857 
23 *613:102 *613:111 2.55357 
24 *613:111 *613:113 4.5 
25 *613:113 *613:116 11.6071 
26 *613:116 *1108:CLK 16.05 
27 *613:116 *1162:CLK 19.7286 
28 *613:113 *1098:CLK 10.6571 
29 *613:111 *1113:CLK 19.7286 
30 *613:87 *1110:CLK 9.83571 
31 *613:5 *1104:CLK 9.3 
*END

*D_NET *614 0.00786925
*CONN
*I *1177:CLK I *D sky130_fd_sc_hd__dfrtp_1
*I *1184:CLK I *D sky130_fd_sc_hd__dfxtp_1
*I *1178:CLK I *D sky130_fd_sc_hd__dfrtp_1
*I *1190:CLK I *D sky130_fd_sc_hd__dfxtp_1
*I *1183:CLK I *D sky130_fd_sc_hd__dfxtp_1
*I *1152:CLK I *D sky130_fd_sc_hd__dfrtp_1
*I *1081:CLK I *D sky130_fd_sc_hd__dfstp_2
*I *1083:CLK I *D sky130_fd_sc_hd__dfrtp_1
*I *1116:CLK I *D sky130_fd_sc_hd__dfrtp_1
*I *1511:X O *D sky130_fd_sc_hd__clkbuf_16
*CAP
1 *1177:CLK 0.000436528
2 *1184:CLK 0.000458831
3 *1178:CLK 2.26741e-05
4 *1190:CLK 0
5 *1183:CLK 0.000368985
6 *1152:CLK 0.000112474
7 *1081:CLK 0.000124066
8 *1083:CLK 0.000341395
9 *1116:CLK 0.000311544
10 *1511:X 6.50276e-05
11 *614:47 0.000861356
12 *614:43 0.000815839
13 *614:42 0.000458616
14 *614:40 0.000664901
15 *614:31 0.000529925
16 *614:30 0.000986439
17 *614:17 0.0008128
18 *614:7 0.000497854
19 *626:A *1152:CLK 0
20 *626:A *1183:CLK 0
21 *626:B *1152:CLK 0
22 *664:A1 *1116:CLK 0
23 *703:A *614:30 0
24 *727:A *1177:CLK 0
25 *750:B *614:17 0
26 *750:B *614:30 0
27 *751:A *1177:CLK 0
28 *751:A *614:30 0
29 *767:A *1116:CLK 0
30 *767:A *614:17 0
31 *978:B *1081:CLK 0
32 *978:B *1177:CLK 0
33 *978:B *614:31 0
34 *1059:A *1183:CLK 0
35 *1081:D *1178:CLK 0
36 *1081:D *614:40 0
37 *1081:D *614:43 0
38 *1081:SET_B *614:30 0
39 *1081:SET_B *614:40 0
40 *1178:D *1184:CLK 0
41 *1178:RESET_B *614:40 0
42 *1183:D *1183:CLK 0
43 *1184:D *1184:CLK 0
44 *1190:D *1184:CLK 0
45 *1190:D *614:43 0
46 *1512:A *614:7 0
47 *124:15 *1183:CLK 0
48 *204:11 *1184:CLK 0
49 *472:8 *1177:CLK 0
50 *472:8 *614:30 0
51 *472:8 *614:31 0
52 *472:8 *614:40 0
53 *571:11 *614:40 0
*RES
1 *1511:X *614:7 15.1571 
2 *614:7 *1116:CLK 20.9071 
3 *614:7 *614:17 2.78571 
4 *614:17 *1083:CLK 20.925 
5 *614:17 *614:30 12.5179 
6 *614:30 *614:31 4.23214 
7 *614:31 *1081:CLK 11.8893 
8 *614:31 *614:40 9.17857 
9 *614:40 *614:42 4.5 
10 *614:42 *614:43 9.16071 
11 *614:43 *614:47 12.4286 
12 *614:47 *1152:CLK 16.3536 
13 *614:47 *1183:CLK 22.1571 
14 *614:43 *1190:CLK 9.3 
15 *614:42 *1178:CLK 9.83571 
16 *614:40 *1184:CLK 23.8357 
17 *614:30 *1177:CLK 27.9964 
*END

*D_NET *615 0.00846678
*CONN
*I *1086:CLK I *D sky130_fd_sc_hd__dfrtp_1
*I *1087:CLK I *D sky130_fd_sc_hd__dfrtp_1
*I *1088:CLK I *D sky130_fd_sc_hd__dfrtp_1
*I *1082:CLK I *D sky130_fd_sc_hd__dfrtp_1
*I *1084:CLK I *D sky130_fd_sc_hd__dfrtp_1
*I *1085:CLK I *D sky130_fd_sc_hd__dfrtp_1
*I *1089:CLK I *D sky130_fd_sc_hd__dfrtp_1
*I *1153:CLK I *D sky130_fd_sc_hd__dfrtp_1
*I *1115:CLK I *D sky130_fd_sc_hd__dfrtp_1
*I *1090:CLK I *D sky130_fd_sc_hd__dfrtp_1
*I *1091:CLK I *D sky130_fd_sc_hd__dfrtp_1
*I *1097:CLK I *D sky130_fd_sc_hd__dfrtp_1
*I *1114:CLK I *D sky130_fd_sc_hd__dfrtp_1
*I *1512:X O *D sky130_fd_sc_hd__clkbuf_16
*CAP
1 *1086:CLK 2.41714e-05
2 *1087:CLK 0.000454551
3 *1088:CLK 0.000104386
4 *1082:CLK 8.4707e-05
5 *1084:CLK 2.56688e-05
6 *1085:CLK 2.56688e-05
7 *1089:CLK 0
8 *1153:CLK 0.00039584
9 *1115:CLK 6.07494e-05
10 *1090:CLK 0.000216629
11 *1091:CLK 0
12 *1097:CLK 3.22476e-05
13 *1114:CLK 2.0535e-05
14 *1512:X 8.32096e-05
15 *615:115 0.000588443
16 *615:104 0.000439034
17 *615:95 0.000422108
18 *615:86 0.000354831
19 *615:77 0.000743186
20 *615:50 0.000676057
21 *615:35 0.00039584
22 *615:27 0.000749647
23 *615:13 0.00108992
24 *615:8 0.000822989
25 *615:5 0.00065636
26 *721:C2 *615:13 0
27 *753:C *615:77 0
28 *796:B1 *615:35 0
29 *866:A *615:13 0
30 *1053:A *1082:CLK 0
31 *1086:RESET_B *1087:CLK 0
32 *1087:D *1087:CLK 0
33 *1087:RESET_B *1087:CLK 0
34 *1087:RESET_B *615:104 0
35 *1087:RESET_B *615:115 0
36 *1088:RESET_B *1088:CLK 0
37 *1091:D *1090:CLK 0
38 *1091:D *615:35 0
39 *1097:RESET_B *1090:CLK 0
40 *1114:D *615:13 0
41 *1114:RESET_B *615:27 0
42 *1115:D *615:13 0
43 *1116:RESET_B *615:13 0
44 *13:11 *615:13 0
45 *13:11 *615:77 0
46 *204:63 *615:13 0
47 *246:74 *1090:CLK 0
48 *455:383 *615:95 0
49 *455:383 *615:104 0
50 *455:385 *615:86 0
51 *455:385 *615:95 0
52 *455:387 *615:77 0
53 *455:389 *615:8 0
54 *455:389 *615:13 0
55 *455:430 *1090:CLK 0
56 *455:438 *615:27 0
57 *455:948 *615:104 0
58 *455:957 *615:104 0
59 *494:9 *615:77 0
60 *494:35 *615:77 0
61 *500:8 *615:77 0
62 *500:8 *615:86 0
63 *500:8 *615:95 0
64 *500:8 *615:104 0
65 *500:8 *615:115 0
66 *500:48 *615:115 0
67 *501:10 *1090:CLK 0
68 *534:8 *1153:CLK 0
69 *534:16 *1153:CLK 0
70 *536:8 *1097:CLK 0
71 *536:8 *615:35 0
72 *543:8 *1097:CLK 0
73 *544:8 *615:50 0
*RES
1 *1512:X *615:5 11.0679 
2 *615:5 *615:8 6.14286 
3 *615:8 *615:13 16.4107 
4 *615:13 *1114:CLK 9.72857 
5 *615:13 *615:27 15.8571 
6 *615:27 *1097:CLK 14.5321 
7 *615:27 *615:35 4.07143 
8 *615:35 *1091:CLK 13.8 
9 *615:35 *1090:CLK 18.7821 
10 *615:8 *615:50 9.14286 
11 *615:50 *1115:CLK 10.5679 
12 *615:50 *1153:CLK 27.2286 
13 *615:5 *1089:CLK 9.3 
14 *615:5 *615:77 15.4464 
15 *615:77 *1085:CLK 14.3357 
16 *615:77 *615:86 4.98214 
17 *615:86 *1084:CLK 14.3357 
18 *615:86 *615:95 2.55357 
19 *615:95 *1082:CLK 15.5679 
20 *615:95 *615:104 4.98214 
21 *615:104 *1088:CLK 15.9786 
22 *615:104 *615:115 7.05357 
23 *615:115 *1087:CLK 18.9429 
24 *615:115 *1086:CLK 9.83571 
*END
